LAMMPS (7 Feb 2024 - Update 1)
OMP_NUM_THREADS environment is not set. Defaulting to 1 thread. (src/comm.cpp:98)
  using 1 OpenMP thread(s) per MPI task
units			lj
boundary		p p p
atom_style		bond
special_bonds   	fene
bond_style      	fene
pair_style      	lj/cut 2.5

read_data      	10mers.data
Reading data file ...
  orthogonal box = (-6.6789713 -6.6789713 -6.6789713) to (6.6789713 6.6789713 6.6789713)
  1 by 1 by 1 MPI processor grid
  reading atoms ...
  2000 atoms
  reading velocities ...
  2000 velocities
  scanning bonds ...
  1 = max bonds/atom
  reading bonds ...
  1800 bonds
Finding 1-2 1-3 1-4 neighbors ...
  special bond factors lj:    0        1        1       
  special bond factors coul:  0        1        1       
     2 = max # of 1-2 neighbors
     2 = max # of special neighbors
  special bonds CPU = 0.000 seconds
  read_data CPU = 0.011 seconds

mass 			1 1

bond_coeff     		1 30 1.5 1.0 1.0
pair_coeff 		1 1 1.0 1.0 2.5
neighbor        	0.2 bin
neigh_modify    	check yes every 1

compute		1 all msd
compute		2 all rdf 100 1 1 cutoff 2.5
compute 		3 all gyration

timestep		0.001
thermo 		100
thermo_style 		custom step etotal enthalpy vol temp press density c_3[4]
dump                   MyDump all custom 1000 dump.atom id type x y z vx vy vz


fix 			1 all ave/time 10 5 50 c_1[4] file msd.txt
fix 			3 all ave/time 10 50 1000 c_2[*] file rdf.txt mode vector

fix 			npt all npt temp 1.0 0.2 0.1 iso 0.0 0.0 1
run             	100000
Generated 0 of 0 mixed pair_coeff terms from geometric mixing rule
Neighbor list info ...
  update: every = 1 steps, delay = 0 steps, check = yes
  max neighbors/atom: 2000, page size: 100000
  master list distance cutoff = 2.7
  ghost atom cutoff = 2.7
  binsize = 1.35, bins = 10 10 10
  2 neighbor lists, perpetual/occasional/extra = 1 1 0
  (1) pair lj/cut, perpetual
      attributes: half, newton on
      pair build: half/bin/newton
      stencil: half/bin/3d
      bin: standard
  (2) compute rdf, occasional, copy from (1)
      attributes: half, newton on
      pair build: copy
      stencil: none
      bin: none
Per MPI rank memory allocation (min/avg/max) = 4.715 | 4.715 | 4.715 Mbytes
   Step         TotEng        Enthalpy        Volume          Temp          Press         Density         c_3[4]    
         0   15.563016      16.104694      2383.5195      0.96058228     0.45451961     0.83909529     11.401434    
       100   15.576585      14.922025      2389.7718      1.0028337     -0.54780071     0.83689998     11.422609    
       200   15.533175      15.304692      2376.6855      1.0191151     -0.19227048     0.84150805     11.40032     
       300   15.461966      15.368214      2361.2991      1.0103803     -0.079406491    0.84699138     11.376087    
       400   15.418208      15.961302      2341.9627      1.0096755      0.4637939      0.85398457     11.342203    
       500   15.36306       14.963005      2333.1434      0.99128289    -0.34293185     0.85721263     11.293862    
       600   15.346606      15.490192      2321.9693      0.99992663     0.12367538     0.86133785     11.308645    
       700   15.328686      15.428533      2322.9145      0.9919031      0.085967353    0.86098737     11.401994    
       800   15.268582      15.125892      2324.4362      0.97001305    -0.12277352     0.86042371     11.492218    
       900   15.249422      14.942865      2322.5026      0.96608422    -0.26398861     0.86114004     11.55034     
      1000   15.302576      15.117903      2315.6842      0.99269227    -0.15949753     0.86367562     11.583803    
      1100   15.33182       15.872685      2304.6776      1.0375421      0.46936266     0.86780035     11.608267    
      1200   15.284398      15.127368      2302.3846      1.0009724     -0.13640636     0.86866458     11.635067    
      1300   15.225688      15.437087      2296.61        0.99791885     0.18409648     0.87084877     11.610289    
      1400   15.196857      15.171115      2299.6528      0.95976837    -0.022387903    0.8696965      11.631729    
      1500   15.234656      15.130225      2306.0934      0.97433627    -0.090569593    0.86726757     11.654911    
      1600   15.281499      15.285828      2312.0161      0.99133557     0.0037446879   0.86504587     11.637963    
      1700   15.291211      15.093472      2318.9752      0.98857731    -0.17053996     0.86244994     11.612037    
      1800   15.297175      15.377433      2319.2032      0.97191563     0.069211121    0.86236515     11.548247    
      1900   15.3114        15.235836      2317.2708      0.98338524    -0.06521782     0.8630843      11.484068    
      2000   15.298864      15.462984      2309.1088      1.0022548      0.1421501      0.86613501     11.420596    
      2100   15.237393      15.040912      2302.1688      0.96972442    -0.17069249     0.86874601     11.36634     
      2200   15.228234      15.27669       2298.7075      0.96133719     0.042158736    0.87005417     11.348486    
      2300   15.267932      15.210024      2304.5123      1.0140165     -0.050256057    0.86786258     11.372333    
      2400   15.262282      15.333495      2304.5387      0.98785958     0.061801602    0.86785265     11.370863    
      2500   15.194638      15.164013      2301.237       0.947113      -0.026616938    0.86909778     11.351298    
      2600   15.186673      14.780192      2298.3912      0.96413899    -0.35370893     0.8701739      11.316913    
      2700   15.212037      15.559556      2289.8945      0.96583641     0.30352358     0.87340269     11.285319    
      2800   15.286244      15.695985      2288.645       1.0108272      0.35806402     0.87387952     11.293849    
      2900   15.292578      14.892922      2299.1778      1.0050443     -0.34765144     0.86987619     11.342454    
      3000   15.268092      15.274757      2303.6574      0.98281627     0.0057866414   0.86818466     11.366661    
      3100   15.243854      15.33074       2302.3507      0.98144614     0.075476301    0.86867741     11.374334    
      3200   15.236638      14.854654      2299.8473      0.98211705    -0.33218199     0.86962295     11.38141     
      3300   15.187394      15.175667      2285.0182      0.96605523    -0.010263937    0.87526655     11.393148    
      3400   15.137156      15.480053      2268.2696      0.96056677     0.30234276     0.8817294      11.361315    
      3500   15.124644      15.110282      2268.8251      0.96945196    -0.012660369    0.88151353     11.309011    
      3600   15.10734       15.30214       2274.8537      0.96746527     0.17126357     0.8791774      11.333052    
      3700   15.131803      15.04462       2285.1878      0.95861351    -0.076302918    0.8752016      11.39537     
      3800   15.202115      15.387294      2289.8961      0.97306075     0.16173616     0.87340206     11.403374    
      3900   15.216235      15.134397      2298.5629      0.97925382    -0.07120798     0.87010888     11.424661    
      4000   15.190498      14.660984      2301.4016      0.9638938     -0.46016666     0.86903564     11.435272    
      4100   15.154194      14.951527      2289.8988      0.94890383    -0.17700932     0.87340103     11.405152    
      4200   15.148122      15.459405      2276.3233      0.94957562     0.2734963      0.8786098      11.362248    
      4300   15.186648      15.692141      2272.5472      0.99141784     0.44486843     0.88006973     11.325902    
      4400   15.185492      15.136224      2286.822       0.99606453    -0.043088647    0.87457616     11.395735    
      4500   15.13622       14.609429      2303.4876      0.93459478    -0.45738507     0.86824867     11.436854    
      4600   15.168506      14.993506      2307.3471      0.94384371    -0.15168904     0.86679633     11.441956    
      4700   15.213784      15.376179      2296.9791      0.99033236     0.14139838     0.87070885     11.418336    
      4800   15.199143      15.403151      2289.2466      0.97554258     0.17823185     0.87364987     11.413252    
      4900   15.165515      15.403521      2288.1739      0.95494063     0.20803114     0.87405945     11.421022    
      5000   15.14532       14.644521      2291.2098      0.94997393    -0.43714748     0.8729013      11.458387    
      5100   15.154377      15.177506      2286.2167      0.95620383     0.020233271    0.87480772     11.431746    
      5200   15.204781      15.094436      2285.3857      0.99362278    -0.096565665    0.87512581     11.386434    
      5300   15.204067      15.294826      2282.2401      0.97147424     0.079534704    0.87633197     11.331823    
      5400   15.146197      15.124491      2279.1275      0.94460171    -0.019047681    0.87752879     11.285207    
      5500   15.116188      15.129702      2279.848       0.95989661     0.011855425    0.87725148     11.26708     
      5600   15.111905      14.923358      2283.4571      0.94921741    -0.165141       0.87586492     11.284456    
      5700   15.131714      15.230713      2275.5323      0.97815823     0.087011599    0.87891521     11.273074    
      5800   15.114749      14.861816      2266.6866      0.96649639    -0.22317367     0.88234518     11.243846    
      5900   15.083279      15.362496      2254.6446      0.96357041     0.24768144     0.88705776     11.215048    
      6000   15.066829      15.105344      2255.9691      0.94652309     0.034145474    0.88653695     11.197907    
      6100   15.054553      14.93106       2260.5235      0.947172      -0.10926016     0.88475082     11.178821    
      6200   15.062143      15.136879      2266.1508      0.92723965     0.065958241    0.88255379     11.206419    
      6300   15.121542      15.26615       2268.811       0.99682898     0.12747437     0.88151898     11.256092    
      6400   15.106268      15.099533      2271.5332      0.94845324    -0.0059292087   0.88046258     11.272554    
      6500   15.05575       14.748442      2276.3771      0.93929121    -0.26999744     0.87858907     11.292513    
      6600   15.01982       14.740818      2273.0061      0.91023075    -0.2454918      0.87989206     11.293027    
      6700   15.038797      15.228367      2256.9102      0.9444997      0.16799086     0.8861673      11.26237     
      6800   15.048516      15.201109      2246.5545      0.96575138     0.13584572     0.89025215     11.304924    
      6900   15.017144      15.184761      2248.4286      0.94801168     0.14909665     0.88951012     11.299762    
      7000   14.977976      14.583383      2259.6689      0.9278556     -0.34924927     0.88508542     11.320017    
      7100   14.991571      15.111964      2257.3104      0.91925989     0.10666877     0.88601018     11.301886    
      7200   15.045035      15.256849      2248.7186      0.95926259     0.18838673     0.88939541     11.26047     
      7300   15.0536        15.008772      2251.0231      0.9421443     -0.039828704    0.8884849      11.244087    
      7400   15.034424      14.921986      2255.6551      0.95347719    -0.099694778    0.88666037     11.296408    
      7500   14.9989        14.862622      2254.5422      0.92619824    -0.12089208     0.88709805     11.33126     
      7600   14.989419      15.121664      2249.9213      0.9227812      0.11755541     0.88891999     11.28239     
      7700   15.000316      15.028725      2247.6398      0.93182946     0.025278806    0.88982229     11.239254    
      7800   15.051032      15.276459      2245.0038      0.96233307     0.2008251      0.89086707     11.221203    
      7900   15.062508      15.243318      2257.9099      0.93692209     0.16015701     0.88577494     11.231252    
      8000   15.044807      14.901371      2278.5377      0.93277078    -0.1259012      0.87775595     11.293597    
      8100   15.002925      14.740793      2278.0033      0.92144195    -0.2301415      0.87796187     11.309498    
      8200   14.996851      14.924681      2255.5956      0.91182008    -0.063992509    0.88668378     11.235199    
      8300   15.060436      15.447778      2235.6832      0.97329378     0.34650884     0.89458115     11.185468    
      8400   15.023885      14.863112      2239.7689      0.9506925     -0.14356145     0.89294929     11.239906    
      8500   14.985285      14.746367      2247.8587      0.91011798    -0.21257431     0.88973565     11.271121    
      8600   14.982448      14.860059      2250.5511      0.91940701    -0.10876387     0.88867124     11.251293    
      8700   14.988741      15.26874       2245.4241      0.91926517     0.249395       0.89070033     11.20865     
      8800   15.020961      14.848987      2244.2988      0.96768404    -0.15325469     0.89114692     11.193239    
      8900   15.033318      15.310207      2242.7503      0.95676159     0.24691955     0.89176221     11.211559    
      9000   14.974129      14.96219       2246.823       0.92265623    -0.010627977    0.89014577     11.26263     
      9100   14.946877      14.654959      2248.9276      0.9267129     -0.2596061      0.88931277     11.281128    
      9200   14.943959      15.143947      2236.4724      0.90853246     0.17884217     0.89426544     11.210179    
      9300   14.976455      15.079409      2228.9407      0.92845456     0.092378633    0.89728722     11.163819    
      9400   15.030083      14.937504      2234.4194      0.97276299    -0.082865995    0.89508713     11.177289    
      9500   14.984447      14.958479      2243.1355      0.91557563    -0.02315309     0.8916091      11.199914    
      9600   14.945491      14.980953      2244.3176      0.91950117     0.031601305    0.89113949     11.221179    
      9700   14.954452      14.977236      2240.1041      0.90919485     0.020342166    0.89281564     11.213975    
      9800   14.999452      15.256181      2240.6258      0.94174552     0.22915778     0.89260777     11.247147    
      9900   15.001735      14.70949       2250.1801      0.95142552    -0.25975243     0.88881773     11.344929    
     10000   14.971854      14.745994      2254.0154      0.91532974    -0.20040689     0.88730538     11.413112    
     10100   14.944816      14.81721       2248.2722      0.90953791    -0.11351445     0.88957202     11.42785     
     10200   14.880746      14.776038      2237.119       0.89183518    -0.093609111    0.89400698     11.431179    
     10300   14.885946      15.039097      2228.6473      0.90114481     0.13743919     0.89740536     11.401621    
     10400   14.92968       15.284481      2227.8579      0.92145698     0.31851304     0.89772333     11.350364    
     10500   14.94542       14.654449      2239.2764      0.92554       -0.25987972     0.89314566     11.388977    
     10600   14.913895      14.99279       2240.5183      0.92079783     0.070425468    0.8926506      11.390696    
     10700   14.853881      14.525178      2239.8454      0.88763584    -0.29350568     0.89291877     11.368104    
     10800   14.803138      14.700543      2224.7306      0.88367024    -0.092231717    0.89898525     11.272162    
     10900   14.838535      15.095997      2208.7035      0.91754755     0.23313385     0.90550859     11.211358    
     11000   14.905019      15.241906      2212.5627      0.92773261     0.30452191     0.9039292      11.252919    
     11100   14.89667       14.556595      2235.03        0.91630477    -0.30431355     0.89484259     11.324195    
     11200   14.870555      14.694068      2245.8937      0.89545952    -0.15716403     0.89051409     11.352687    
     11300   14.894811      14.574421      2245.1261      0.90645457    -0.28540917     0.89081856     11.330182    
     11400   14.936907      15.203712      2233.152       0.93233619     0.23894904     0.89559512     11.238519    
     11500   14.912952      15.411935      2223.675       0.91936169     0.44879089     0.89941202     11.210665    
     11600   14.873503      14.566966      2230.9812      0.90025735    -0.27480021     0.89646654     11.216674    
     11700   14.867615      14.441999      2241.8852      0.88641928    -0.37969407     0.89210635     11.185738    
     11800   14.896492      15.117369      2242.1201      0.90432556     0.19702547     0.89201286     11.137387    
     11900   14.91592       15.25016       2239.849       0.88442914     0.29844854     0.89291734     11.108551    
     12000   14.926599      14.855622      2243.488       0.91178287    -0.063273203    0.89146901     11.119852    
     12100   14.90493       14.645145      2246.513       0.90075805    -0.23127824     0.8902686      11.15456     
     12200   14.871972      14.906338      2239.0159      0.88151464     0.030697534    0.89324956     11.148326    
     12300   14.877552      14.829991      2234.6612      0.91548115    -0.042566629    0.89499025     11.134027    
     12400   14.862834      14.87861       2232.9903      0.9175986      0.014129329    0.89565998     11.142673    
     12500   14.825865      14.977952      2228.8345      0.8753157      0.13647194     0.89732999     11.165082    
     12600   14.845056      14.668459      2230.3944      0.90431026    -0.1583549      0.8967024      11.214361    
     12700   14.886086      15.343756      2230.7101      0.90300063     0.41033576     0.89657549     11.229453    
     12800   14.930693      15.02725       2236.5343      0.92884547     0.086345009    0.89424068     11.226042    
     12900   14.867055      14.612887      2238.3682      0.89152157    -0.22710174     0.89350805     11.255626    
     13000   14.834363      14.360145      2233.0072      0.89389967    -0.42473494     0.89565317     11.290247    
     13100   14.810775      14.760061      2215.9015      0.88775017    -0.045772649    0.90256719     11.22714     
     13200   14.80117       15.600448      2200.8776      0.90947485     0.72632606     0.90872843     11.152019    
     13300   14.779665      14.746606      2213.6597      0.88836785    -0.029867813    0.90348124     11.183898    
     13400   14.76378       14.648479      2226.9619      0.87177267    -0.1035501      0.89808451     11.211391    
     13500   14.81904       14.335638      2234.5752      0.88280595    -0.43265689     0.89502471     11.220696    
     13600   14.852714      15.178129      2224.9983      0.91582335     0.29250848     0.8988771      11.199711    
     13700   14.8312        15.061254      2220.5287      0.88355166     0.20720667     0.90068639     11.211451    
     13800   14.797591      14.639024      2223.1795      0.88201988    -0.14264886     0.89961246     11.254882    
     13900   14.774233      14.581923      2228.3671      0.86647899    -0.17260164     0.89751817     11.314562    
     14000   14.827444      14.859915      2231.2715      0.89001089     0.029105817    0.8963499      11.363056    
     14100   14.866723      14.996977      2230.952       0.89274417     0.11676947     0.89647827     11.348626    
     14200   14.881775      15.168635      2235.5944      0.88765232     0.25662917     0.89461666     11.342602    
     14300   14.89031       14.753635      2244.8639      0.88367536    -0.12176675     0.89092259     11.364084    
     14400   14.871789      14.750265      2243.2163      0.89324068    -0.10834796     0.89157696     11.307787    
     14500   14.808378      14.644702      2231.2884      0.87819793    -0.14670971     0.89634313     11.252596    
     14600   14.784255      14.713907      2215.1234      0.87763023    -0.063516039    0.90288422     11.198209    
     14700   14.791768      14.889494      2209.0491      0.88970151     0.08847799     0.90536693     11.160149    
     14800   14.759902      15.288753      2212.5499      0.86653169     0.47804664     0.90393443     11.193357    
     14900   14.731723      14.600051      2225.5509      0.84521191    -0.11832748     0.89865392     11.282984    
     15000   14.795345      14.411534      2225.2058      0.88823183    -0.34496668     0.89879329     11.30796     
     15100   14.81899       14.845194      2217.2379      0.89159855     0.023636496    0.90202317     11.296482    
     15200   14.792077      14.941002      2216.5289      0.87402969     0.13437669     0.90231172     11.247042    
     15300   14.751846      14.845965      2218.1907      0.87656214     0.084861346    0.90163573     11.223632    
     15400   14.746076      14.790521      2214.3368      0.85138381     0.040142955    0.90320497     11.193909    
     15500   14.765447      14.506326      2210.8563      0.88679242    -0.23440791     0.90462687     11.156841    
     15600   14.76375       15.243686      2205.9104      0.88858912     0.43513584     0.90665514     11.116166    
     15700   14.748665      14.44037       2212.451       0.87968463    -0.27869022     0.90397481     11.130971    
     15800   14.74023       15.171318      2211.6413      0.86286292     0.38983566     0.90430578     11.146595    
     15900   14.769943      14.451097      2217.0351      0.88230961    -0.28763285     0.9021057      11.202316    
     16000   14.827654      14.886036      2211.7327      0.8991241      0.052793194    0.9042684      11.23131     
     16100   14.795093      14.728698      2215.5639      0.88766697    -0.059935384    0.90270474     11.286395    
     16200   14.761782      14.748904      2220.9374      0.87145144    -0.011596811    0.90052064     11.374287    
     16300   14.746843      15.006402      2220.8176      0.8489509      0.23375138     0.90056924     11.443426    
     16400   14.768839      14.704818      2220.6828      0.87740492    -0.057658951    0.90062388     11.477778    
     16500   14.765765      14.738871      2217.4294      0.86429777    -0.024257205    0.90194527     11.471014    
     16600   14.724635      14.85575       2216.0233      0.84479517     0.11833283     0.90251757     11.439387    
     16700   14.707216      14.40568       2216.8538      0.8728583     -0.27203956     0.90217948     11.390556    
     16800   14.693941      14.988901      2204.8037      0.84216313     0.26756118     0.90711022     11.306632    
     16900   14.700086      14.970774      2198.596       0.85310234     0.24623649     0.90967143     11.274205    
     17000   14.723011      14.795343      2203.2838      0.88550262     0.0656587      0.90773599     11.282454    
     17100   14.739654      14.558065      2213.4003      0.84938844    -0.16408143     0.90358714     11.321037    
     17200   14.736036      14.459202      2217.1033      0.88423275    -0.24972604     0.90207796     11.315376    
     17300   14.684779      14.946041      2208.6819      0.83937994     0.23657761     0.90551746     11.265904    
     17400   14.694505      14.878505      2204.108       0.8542675      0.16696096     0.90739653     11.278485    
     17500   14.712041      14.59193       2206.7144      0.88183974    -0.10886004     0.90632482     11.298686    
     17600   14.661212      14.420881      2207.9343      0.84548195    -0.21769747     0.90582404     11.271023    
     17700   14.617285      14.54202       2201.1713      0.83412479    -0.068386204    0.90860714     11.215257    
     17800   14.645188      14.816768      2190.908       0.84820694     0.15662992     0.91286353     11.152793    
     17900   14.665417      14.866278      2188.0358      0.87403394     0.18359963     0.91406184     11.125267    
     18000   14.658464      14.74287       2194.9432      0.85256819     0.076908865    0.9111853      11.137832    
     18100   14.654732      14.503635      2204.4625      0.83681438    -0.13708246     0.90725064     11.180512    
     18200   14.663605      14.726699      2200.249       0.85763592     0.057351714    0.90898803     11.174125    
     18300   14.664148      14.827405      2186.3416      0.85368293     0.1493429      0.91477012     11.130936    
     18400   14.645496      14.587127      2182.6812      0.86056033    -0.053483999    0.91630424     11.139271    
     18500   14.608006      14.33588       2189.4949      0.84386869    -0.24857394     0.9134527      11.155768    
     18600   14.617759      14.773457      2196.3259      0.82559774     0.14178107     0.91061167     11.188993    
     18700   14.675026      14.682551      2203.7269      0.84648727     0.0068297838   0.90755349     11.250024    
     18800   14.691706      14.364641      2205.209       0.85612127    -0.29662963     0.90694352     11.268805    
     18900   14.686633      14.93066       2194.6283      0.86651667     0.22238505     0.91131607     11.211462    
     19000   14.652091      14.819047      2192.6261      0.83715666     0.1522887      0.9121482      11.202936    
     19100   14.606168      14.417847      2195.4339      0.82519796    -0.17155672     0.91098167     11.227553    
     19200   14.59533       14.57          2187.4009      0.84455466    -0.023160241    0.91432712     11.182966    
     19300   14.602799      14.670126      2179.3476      0.84623619     0.06178567     0.91770583     11.117497    
     19400   14.614183      14.564256      2182.8149      0.85089142    -0.04574497     0.91624809     11.125038    
     19500   14.607284      14.823695      2188.1887      0.83323014     0.19779881     0.91399797     11.121976    
     19600   14.62478       14.368833      2196.7877      0.84332528    -0.23301953     0.91042026     11.084307    
     19700   14.679077      14.836264      2196.9761      0.84736749     0.14309349     0.91034219     11.003224    
     19800   14.685935      14.691812      2197.1025      0.85943528     0.0053499222   0.91028979     10.96979     
     19900   14.657781      14.627586      2196.0497      0.86474997    -0.027499195    0.91072622     10.956613    
     20000   14.626521      14.720492      2192.5331      0.82411913     0.085718901    0.91218692     10.964076    
     20100   14.629734      14.454313      2193.4555      0.8433129     -0.15994928     0.91180332     11.010132    
     20200   14.627645      15.009723      2191.7147      0.84556176     0.34865663     0.91252755     11.066525    
     20300   14.591169      14.161426      2194.4145      0.81785255    -0.39167064     0.91140484     11.154983    
     20400   14.556817      14.679105      2185.7532      0.82583609     0.11189517     0.9150164      11.181676    
     20500   14.553429      14.945249      2177.5592      0.82111906     0.35987108     0.91845954     11.192405    
     20600   14.605612      14.945482      2172.7675      0.86051584     0.31284497     0.92048506     11.21514     
     20700   14.59619       14.209139      2178.66        0.86568844    -0.3553114      0.91799548     11.237206    
     20800   14.546349      14.580396      2183.7399      0.81125148     0.03118293     0.91585997     11.251189    
     20900   14.545046      14.462132      2188.4723      0.82991786    -0.075773495    0.91387951     11.262217    
     21000   14.559649      14.354008      2183.938       0.84025232    -0.18832121     0.9157769      11.259977    
     21100   14.580133      14.718859      2178.9313      0.85240807     0.12733414     0.91788116     11.265742    
     21200   14.593486      15.04549       2180.5594      0.85443106     0.41457588     0.91719584     11.298525    
     21300   14.590223      14.269126      2193.848       0.82839853    -0.29272443     0.9116402      11.39243     
     21400   14.556093      14.079148      2195.5315      0.82804223    -0.43446871     0.91094116     11.413316    
     21500   14.538475      14.38568       2182.6429      0.81382666    -0.14000899     0.91632029     11.411314    
     21600   14.551392      15.054742      2169.157       0.83114939     0.46409823     0.92201715     11.402922    
     21700   14.574254      14.628004      2175.5578      0.85127897     0.049413164    0.91930445     11.436342    
     21800   14.563262      14.611953      2190.2677      0.82156057     0.044462017    0.91313037     11.46564     
     21900   14.574355      14.303619      2207.1553      0.81895763    -0.24532596     0.90614375     11.511664    
     22000   14.621828      14.227409      2207.628       0.83727045    -0.35732347     0.90594975     11.540758    
     22100   14.621242      14.419967      2192.2057      0.85344559    -0.18362763     0.91232316     11.534119    
     22200   14.581973      15.00619       2181.606       0.83205948     0.38890368     0.91675584     11.511371    
     22300   14.5542        14.869626      2184.6156      0.82761596     0.2887697      0.91549285     11.540073    
     22400   14.538308      14.478343      2188.2481      0.81591372    -0.054806193    0.91397315     11.558307    
     22500   14.541966      14.341718      2191.1602      0.80594391    -0.18277765     0.91275844     11.573803    
     22600   14.582094      14.451948      2190.7662      0.84395924    -0.11881273     0.91292261     11.594739    
     22700   14.592765      14.754915      2186.5534      0.83936236     0.14831523     0.91468152     11.563089    
     22800   14.545919      14.275022      2190.6088      0.79700769    -0.24732649     0.91298822     11.543057    
     22900   14.508856      14.54104       2186.9246      0.81725197     0.029433067    0.91452628     11.535187    
     23000   14.486304      14.755184      2175.1462      0.8132273      0.24722926     0.91947842     11.520542    
     23100   14.500339      14.74179       2168.2487      0.81961868     0.22271461     0.92240341     11.52177     
     23200   14.532039      14.634729      2172.2941      0.82230064     0.094545209    0.92068563     11.548589    
     23300   14.550765      14.285173      2177.4873      0.84214204    -0.24394403     0.91848985     11.567305    
     23400   14.508015      13.968624      2182.0562      0.80569501    -0.49438767     0.91656666     11.598257    
     23500   14.470689      14.41186       2178.6591      0.80437867    -0.054004971    0.91799586     11.61193     
     23600   14.467537      15.17058       2169.1219      0.8067449      0.64822787     0.92203208     11.604145    
     23700   14.495455      14.579939      2170.7921      0.82266611     0.077836218    0.92132266     11.649232    
     23800   14.517007      14.255169      2173.6396      0.82421144    -0.24092116     0.92011572     11.646984    
     23900   14.522969      14.265072      2179.4993      0.8198327     -0.23665716     0.91764197     11.648655    
     24000   14.488862      14.478932      2182.9708      0.8050572     -0.0090975301   0.91618265     11.650586    
     24100   14.459634      14.424058      2176.0251      0.80311586    -0.032698664    0.91910704     11.648594    
     24200   14.449598      14.606741      2165.7691      0.79493878     0.14511503     0.92345946     11.609083    
     24300   14.46735       14.453382      2166.0953      0.8196504     -0.01289699     0.9233204      11.611116    
     24400   14.497711      14.693353      2172.0466      0.81433033     0.1801457      0.92079054     11.65329     
     24500   14.529845      14.342011      2186.4828      0.81437597    -0.17181418     0.91471105     11.721378    
     24600   14.536333      14.632042      2189.3574      0.82224614     0.087431219    0.91351006     11.743573    
     24700   14.483931      14.229215      2186.1743      0.7936712     -0.23302434     0.91484016     11.74644     
     24800   14.452805      14.407761      2174.5577      0.79770594    -0.041427655    0.91972725     11.6999      
     24900   14.433374      14.858621      2161.6889      0.7949194      0.39343959     0.92520252     11.625788    
     25000   14.419812      14.232262      2161.0157      0.79235421    -0.17357513     0.92549073     11.626836    
     25100   14.392108      14.106366      2165.4141      0.79134457    -0.26391474     0.92361087     11.594953    
     25200   14.354203      14.714763      2162.1229      0.77209374     0.333524       0.92501679     11.556409    
     25300   14.372041      14.341374      2158.1434      0.77339759    -0.028419997    0.92672247     11.547696    
     25400   14.423347      14.839049      2156.9206      0.79577851     0.3854592      0.92724784     11.52807     
     25500   14.439237      14.268052      2171.8314      0.79360514    -0.15764124     0.9208818      11.551388    
     25600   14.437761      14.060281      2179.2888      0.77210566    -0.34642533     0.9177306      11.52502     
     25700   14.483622      14.536328      2180.4755      0.80696968     0.048343189    0.91723114     11.473223    
     25800   14.495821      14.455916      2178.458       0.83038569    -0.036635912    0.9180806      11.395078    
     25900   14.45827       14.761154      2166.0824      0.80745836     0.27966035     0.92332589     11.328524    
     26000   14.429801      14.685028      2159.0932      0.79096456     0.23642016     0.92631482     11.320168    
     26100   14.410927      14.229771      2163.356       0.78822242    -0.16747606     0.92448953     11.303315    
     26200   14.396577      14.162567      2170.9712      0.77754695    -0.21558095     0.92124667     11.253198    
     26300   14.418737      14.73238       2169.9318      0.78419806     0.28908083     0.92168794     11.180966    
     26400   14.476145      14.244955      2172.7698      0.8048386     -0.21280618     0.92048406     11.170873    
     26500   14.465129      14.284041      2173.4001      0.8047016     -0.16663977     0.92021715     11.155385    
     26600   14.427224      14.637594      2174.4051      0.75666175     0.1934967      0.91979183     11.127255    
     26700   14.441123      14.056488      2182.4839      0.80425277    -0.35247448     0.91638706     11.155368    
     26800   14.452681      14.610574      2178.2052      0.77332159     0.14497563     0.91818712     11.118767    
     26900   14.507703      14.519272      2173.2634      0.81090631     0.010646448    0.92027503     11.084675    
     27000   14.487292      14.846788      2166.6827      0.81368729     0.33184056     0.9230701      11.051988    
     27100   14.4336        14.005898      2170.1077      0.78802772    -0.39417601     0.92161324     11.054041    
     27200   14.403401      14.484058      2165.3881      0.78458665     0.074496261    0.92362197     10.987789    
     27300   14.375407      14.411573      2163.0806      0.79555779     0.033438913    0.92460726     10.951121    
     27400   14.351367      14.325668      2162.4918      0.77125208    -0.023768512    0.92485898     10.931669    
     27500   14.35909       14.437529      2159.9678      0.78560225     0.07263023     0.92593972     10.947218    
     27600   14.395061      14.442456      2156.498       0.78152719     0.043954991    0.92742956     10.979596    
     27700   14.428784      14.181372      2163.4157      0.79026749    -0.22872372     0.92446402     10.985543    
     27800   14.404452      14.361343      2171.5028      0.7848814     -0.039704539    0.92102116     10.974417    
     27900   14.377294      14.344128      2173.1853      0.77512093    -0.030522939    0.92030808     10.974362    
     28000   14.373161      14.224702      2164.5355      0.7899491     -0.1371745      0.92398579     10.971237    
     28100   14.359004      14.419984      2148.6829      0.80104155     0.056760348    0.93080279     10.889456    
     28200   14.319412      14.397387      2139.5708      0.7752534      0.072888538    0.93476693     10.802535    
     28300   14.308768      14.038606      2145.5608      0.78044425    -0.2518333      0.93215721     10.802651    
     28400   14.30033       14.335554      2151.3912      0.76415663     0.032745399    0.92963101     10.818367    
     28500   14.326542      14.347937      2155.7187      0.75934107     0.019849008    0.92776483     10.853969    
     28600   14.36378       14.377112      2159.1153      0.77747646     0.012348907    0.92630532     10.910118    
     28700   14.365504      14.517554      2157.5576      0.78690634     0.14094688     0.92697409     10.949484    
     28800   14.343654      14.168863      2158.6957      0.75178623    -0.16194219     0.92648536     10.94597     
     28900   14.331803      14.09469       2157.6455      0.77429989    -0.21978893     0.92693634     10.943767    
     29000   14.270022      14.400202      2145.0401      0.75604804     0.12137705     0.93238349     10.921048    
     29100   14.25256       14.441051      2131.6443      0.75786352     0.17685026     0.93824285     10.894967    
     29200   14.252557      14.295967      2125.2388      0.77610843     0.040851861    0.94107072     10.854476    
     29300   14.226085      14.631972      2126.4375      0.74881729     0.38175357     0.94054022     10.832127    
     29400   14.216953      14.190637      2142.22        0.75125441    -0.024569243    0.93361094     10.861191    
     29500   14.271207      14.139707      2151.0401      0.76095368    -0.12226667     0.92978276     10.870039    
     29600   14.29561       14.184414      2147.0271      0.77307517    -0.1035813      0.93152063     10.781293    
     29700   14.28389       14.276875      2138.9273      0.77791812    -0.0065596103   0.93504814     10.6935      
     29800   14.245666      14.159509      2136.001       0.75638867    -0.080671188    0.93632913     10.68877     
     29900   14.222697      14.102797      2138.7833      0.74833388    -0.11211987     0.9351111      10.734972    
     30000   14.236673      14.327691      2140.338       0.74806948     0.085050223    0.93443185     10.77587     
     30100   14.254561      14.215676      2137.2027      0.76837018    -0.036389299    0.93580267     10.778138    
     30200   14.249468      14.655832      2134.4326      0.7523922      0.38077043     0.93701719     10.775555    
     30300   14.248601      13.6085        2146.344       0.77595866    -0.5964568      0.93181709     10.820061    
     30400   14.22733       14.129574      2143.3191      0.7406576     -0.091219245    0.93313217     10.803766    
     30500   14.245737      14.546693      2138.1467      0.76373343     0.2815108      0.9353895      10.736026    
     30600   14.285015      14.338675      2142.7858      0.7512931      0.050084338    0.9333644      10.707439    
     30700   14.279064      14.232658      2148.6201      0.76530803    -0.043195718    0.93082999     10.718729    
     30800   14.246659      13.91978       2149.7572      0.749022      -0.30410737     0.9303376      10.713718    
     30900   14.245566      14.084392      2141.6143      0.75258325    -0.15051668     0.93387495     10.675534    
     31000   14.249429      14.596778      2133.7763      0.75066754     0.32557213     0.93730537     10.649685    
     31100   14.245674      14.585679      2133.3334      0.75497997     0.31875475     0.93749997     10.630699    
     31200   14.2141        14.074165      2137.9206      0.74704534    -0.13090782     0.93548844     10.657059    
     31300   14.182809      13.788999      2138.894       0.72205693    -0.36823723     0.93506268     10.699312    
     31400   14.220068      14.339871      2135.9882      0.74191757     0.11217591     0.93633475     10.682962    
     31500   14.241539      14.561324      2138.9783      0.76302923     0.29900719     0.93502587     10.643325    
     31600   14.229556      14.145886      2141.7108      0.74919254    -0.078133855    0.93383292     10.620893    
     31700   14.225835      14.196646      2141.5077      0.71402033    -0.027259992    0.93392145     10.61698     
     31800   14.269111      14.283115      2141.023       0.74684829     0.01308247     0.9341329      10.597633    
     31900   14.278318      14.623663      2140.0597      0.75040728     0.322743       0.93455339     10.59879     
     32000   14.23852       14.193409      2142.0996      0.74129795    -0.042118422    0.9336634      10.636787    
     32100   14.22689       14.031335      2138.8479      0.74341268    -0.18286079     0.93508285     10.648428    
     32200   14.22172       14.065253      2138.6311      0.74266911    -0.14632457     0.93517764     10.611646    
     32300   14.204622      14.569881      2134.9135      0.72516213     0.34217713     0.93680608     10.601263    
     32400   14.179872      14.10758       2133.8625      0.733592      -0.067757011    0.93726752     10.629122    
     32500   14.147148      14.157309      2129.1775      0.72761598     0.0095442049   0.93932985     10.648325    
     32600   14.133687      14.005598      2129.2813      0.73260935    -0.12031235     0.93928408     10.684569    
     32700   14.149802      14.376212      2130.1401      0.72174496     0.21257755     0.9389054      10.71813     
     32800   14.197074      14.242462      2133.1617      0.73963831     0.04255441     0.93757543     10.744253    
     32900   14.215465      13.994944      2136.9526      0.74796367    -0.20638771     0.9359122      10.819927    
     33000   14.191517      13.950634      2136.3109      0.74576213    -0.22551351     0.93619332     10.805966    
     33100   14.158964      14.561801      2129.0164      0.71920918     0.3784254      0.93940094     10.776557    
     33200   14.16911       13.820662      2132.1845      0.75172193    -0.32684643     0.93800514     10.801135    
     33300   14.150365      14.230971      2129.4215      0.71882411     0.075706817    0.93922223     10.845663    
     33400   14.140691      14.441289      2128.9841      0.73433581     0.28238624     0.93941517     10.864589    
     33500   14.122901      13.922777      2132.1557      0.71778715    -0.18772034     0.93801781     10.882929    
     33600   14.144574      13.954833      2133.1824      0.72635514    -0.17789411     0.93756634     10.92554     
     33700   14.178654      13.850541      2130.7114      0.75500527    -0.30798452     0.93865362     10.923912    
     33800   14.156765      14.297014      2122.5877      0.74691939     0.13214911     0.9422461      10.898651    
     33900   14.116988      14.376123      2121.2936      0.7173689      0.24431796     0.94282094     10.904902    
     34000   14.10528       14.101609      2120.7422      0.72072614    -0.0034612171   0.94306606     10.872284    
     34100   14.09963       14.180601      2117.8807      0.71882891     0.076463695    0.94434024     10.798492    
     34200   14.119418      14.002062      2119.4618      0.73833922    -0.11074185     0.94363576     10.74241     
     34300   14.1496        13.983077      2119.1939      0.73835358    -0.15715729     0.94375509     10.710721    
     34400   14.164206      14.119467      2124.9205      0.7398521     -0.042109376    0.94121169     10.705394    
     34500   14.118579      14.20325       2129.9122      0.72074024     0.079506152    0.93900585     10.712226    
     34600   14.109445      14.025694      2124.6612      0.71963657    -0.078837137    0.94132655     10.725832    
     34700   14.121214      14.280691      2111.0519      0.73475709     0.15108751     0.947395       10.694101    
     34800   14.101651      14.103519      2105.809       0.72952971     0.0017745129   0.94975376     10.661914    
     34900   14.059208      14.165046      2107.8854      0.71609323     0.1004206      0.9488182      10.625763    
     35000   14.071549      13.935595      2114.3983      0.7198382     -0.12859816     0.94589556     10.621437    
     35100   14.092064      13.810665      2115.0498      0.72224055    -0.26609189     0.9456042      10.64173     
     35200   14.086674      14.074903      2106.2042      0.72565801    -0.011177881    0.94957553     10.643745    
     35300   14.030201      14.237529      2099.7648      0.70751025     0.19747734     0.95248763     10.602274    
     35400   14.014956      14.249227      2101.1641      0.69826958     0.22299131     0.95185332     10.60497     
     35500   14.034697      13.69635       2108.7387      0.7222835     -0.32090048     0.94843424     10.6636      
     35600   14.049596      14.01029       2108.8382      0.71761891    -0.037277188    0.94838948     10.700466    
     35700   14.077362      14.233565      2105.387       0.73080796     0.14838426     0.94994411     10.752156    
     35800   14.092894      14.217265      2103.2134      0.73300806     0.11826776     0.95092586     10.817527    
     35900   14.046094      13.807752      2111.0291      0.71406105    -0.22580642     0.94740524     10.886315    
     36000   14.015173      13.823268      2111.5154      0.70301474    -0.18177003     0.94718702     10.856586    
     36100   14.014019      14.239912      2098.0771      0.70824814     0.21533301     0.95325383     10.777535    
     36200   14.029754      14.607598      2092.5934      0.72182412     0.55227543     0.95575183     10.740762    
     36300   14.032994      13.721241      2109.256       0.71032824    -0.29560442     0.94820164     10.834781    
     36400   14.028483      13.745144      2119.9292      0.68761356    -0.26730927     0.94342773     10.922593    
     36500   14.05543       13.984516      2117.6676      0.70561709    -0.066974186    0.9444353      10.913107    
     36600   14.085188      14.345452      2107.2724      0.74071364     0.24701498     0.94909421     10.878991    
     36700   14.048887      13.888328      2103.0646      0.72419311    -0.15269061     0.95099314     10.891253    
     36800   14.014826      14.233136      2101.2567      0.7193045      0.20778955     0.95181135     10.868638    
     36900   13.996971      13.866011      2108.1049      0.69761714    -0.12424421     0.94871937     10.874993    
     37000   13.994296      13.988014      2105.1661      0.7098498     -0.0059675186   0.95004379     10.872509    
     37100   13.995007      13.965308      2099.1868      0.70301179    -0.028295795    0.95274991     10.845342    
     37200   13.99633       14.018011      2094.6117      0.71275032     0.020701592    0.95483092     10.811591    
     37300   13.967161      14.026214      2095.75        0.68986903     0.056355283    0.95431228     10.813434    
     37400   13.948535      13.847921      2103.1949      0.71437779    -0.095677938    0.95093422     10.836645    
     37500   13.926739      13.875396      2102.0538      0.67339447    -0.048850165    0.95145044     10.820181    
     37600   13.969102      14.103795      2092.971       0.70978116     0.12870988     0.9555794      10.781564    
     37700   13.984786      14.147781      2089.737       0.71214617     0.15599572     0.95705821     10.750214    
     37800   13.971702      13.853074      2098.4847      0.6926333     -0.11306109     0.95306864     10.780463    
     37900   13.955683      13.442843      2108.0652      0.68861802    -0.48655008     0.94873725     10.800759    
     38000   13.935512      13.903903      2101.678       0.67462226    -0.030080133    0.95162055     10.771273    
     38100   13.948049      14.151907      2090.9347      0.71011685     0.1949922      0.95651003     10.747405    
     38200   13.963968      14.176945      2085.6764      0.73480306     0.20422768     0.95892153     10.775266    
     38300   13.915472      14.346776      2084.1555      0.6665538      0.41388863     0.95962129     10.847511    
     38400   13.913393      13.559981      2091.3313      0.68732287    -0.33797848     0.95632865     10.897102    
     38500   13.912926      13.844569      2092.6255      0.68463365    -0.065332096    0.95573717     10.947459    
     38600   13.931224      13.822595      2095.576       0.69005757    -0.10367451     0.95439154     10.994627    
     38700   13.979935      14.415905      2097.0982      0.70044193     0.41578402     0.95369878     11.016838    
     38800   13.980304      13.998994      2104.9039      0.69500753     0.017758254    0.95016215     11.01063     
     38900   13.955488      13.785312      2106.4988      0.67635753    -0.16157254     0.94944272     10.997895    
     39000   13.945758      13.479594      2103.6031      0.70700366    -0.44320551     0.95074971     10.99684     
     39100   13.893099      14.108252      2090.671       0.67339889     0.20582219     0.95663066     10.971553    
     39200   13.87494       14.056523      2084.1981      0.66116667     0.17424715     0.9596017      10.97543     
     39300   13.884832      13.824293      2084.8782      0.67883646    -0.058074459    0.95928866     10.991852    
     39400   13.886594      14.249981      2082.5434      0.67803835     0.34898409     0.96036413     10.98184     
     39500   13.904811      13.564783      2086.9424      0.70198441    -0.3258625      0.9583398      11.050491    
     39600   13.893022      14.061813      2084.3831      0.67821351     0.16195763     0.95951653     11.056946    
     39700   13.865642      13.88589       2090.6956      0.67320702     0.019370187    0.9566194      11.060162    
     39800   13.855463      13.720313      2096.5911      0.64625024    -0.12892448     0.95392943     11.059585    
     39900   13.907847      13.784799      2094.0777      0.68807618    -0.11752027     0.95507439     11.059266    
     40000   13.920731      13.851088      2089.8993      0.69345837    -0.066647205    0.95698392     11.054441    
     40100   13.891067      13.915076      2086.5967      0.6869715      0.023012713    0.95849861     11.06111     
     40200   13.859986      13.790435      2084.3887      0.68189371    -0.066735012    0.95951393     11.078011    
     40300   13.8543        13.671337      2081.6999      0.67929888    -0.17578224     0.96075326     11.084358    
     40400   13.848643      14.113627      2076.8904      0.66342416     0.25517373     0.9629781      11.045009    
     40500   13.836549      14.113579      2077.2942      0.65134648     0.26672224     0.96279093     10.99679     
     40600   13.831587      14.142206      2080.9828      0.66720432     0.29853153     0.96108435     10.999913    
     40700   13.862018      13.558341      2088.8641      0.67195494    -0.2907588      0.95745817     11.026299    
     40800   13.895408      13.690295      2088.143       0.68157604    -0.1964553      0.95778881     11.012137    
     40900   13.901764      14.042093      2087.1047      0.68060609     0.13447262     0.95826529     11.043539    
     41000   13.881692      13.764963      2089.9025      0.66188274    -0.11170837     0.95698245     11.081027    
     41100   13.873532      13.944845      2086.3015      0.67617315     0.068362764    0.9586342      11.068535    
     41200   13.873655      13.968053      2084.2917      0.67407085     0.090580872    0.9595586      11.062576    
     41300   13.870175      13.636091      2086.7067      0.67062807    -0.22435729     0.95844806     11.111153    
     41400   13.849841      13.909989      2084.5767      0.68030228     0.057707702    0.95942739     11.156501    
     41500   13.811107      13.571386      2083.4589      0.66622213    -0.23011777     0.95994213     11.144296    
     41600   13.798373      13.858995      2076.6499      0.64229501     0.05838464     0.96308962     11.053418    
     41700   13.842113      13.928186      2073.7188      0.68853723     0.083013036    0.96445091     11.003708    
     41800   13.842394      14.01876       2074.0344      0.67603834     0.17007088     0.96430418     11.000371    
     41900   13.830968      13.662832      2078.4713      0.67277646    -0.16178836     0.96224568     11.026986    
     42000   13.817322      13.800896      2079.9147      0.63843713    -0.015794854    0.9615779      11.042191    
     42100   13.826373      13.937841      2078.535       0.66258538     0.1072563      0.96221619     11.035399    
     42200   13.838059      13.792121      2078.789       0.68030266    -0.044197598    0.96209861     11.013474    
     42300   13.846674      14.18964       2078.7716      0.67306271     0.32997036     0.96210668     10.975158    
     42400   13.848892      13.450736      2087.2702      0.67117307    -0.38150832     0.95818932     10.983247    
     42500   13.812261      13.58083       2084.5592      0.65626908    -0.22204295     0.95943544     10.942615    
     42600   13.785188      13.941343      2072.018       0.66237106     0.15072798     0.96524258     10.870849    
     42700   13.778088      13.874242      2066.0323      0.64357032     0.093081117    0.96803906     10.846341    
     42800   13.794183      14.153244      2070.6076      0.67194805     0.34681715     0.96590008     10.907747    
     42900   13.814645      13.571538      2080.4893      0.67366878    -0.2337026      0.96131232     10.970324    
     43000   13.828393      13.776181      2079.6689      0.65417456    -0.050212697    0.96169157     10.974189    
     43100   13.838555      14.131275      2077.7313      0.66991335     0.28176892     0.96258839     10.981917    
     43200   13.812511      13.654394      2084.2414      0.64586425    -0.15172641     0.95958175     11.012007    
     43300   13.793189      13.6565        2087.2226      0.63989902    -0.13097706     0.95821117     11.047884    
     43400   13.809821      13.781595      2081.621       0.65734592    -0.027119621    0.96078968     11.062863    
     43500   13.844838      14.068503      2074.5443      0.66560223     0.21562795     0.96406714     11.063234    
     43600   13.824307      13.864526      2076.8126      0.66468015     0.038732251    0.96301421     11.075939    
     43700   13.799415      13.554444      2084.6688      0.65260204    -0.23502144     0.95938502     11.056108    
     43800   13.800708      13.715817      2087.5211      0.63420619    -0.081331934    0.95807417     11.002177    
     43900   13.814427      13.913107      2080.4098      0.66322847     0.094866329    0.96134905     10.958217    
     44000   13.795766      13.919336      2070.1355      0.6478582      0.11938347     0.96612031     10.918471    
     44100   13.745312      13.707859      2065.5615      0.65702802    -0.036264014    0.96825971     10.890323    
     44200   13.725053      13.926488      2064.8837      0.62552512     0.19510505     0.96857754     10.884726    
     44300   13.742215      13.62757       2072.4625      0.6467239     -0.11063607     0.96503555     10.900754    
     44400   13.762754      13.36778       2077.1287      0.64418895    -0.38030851     0.96286764     10.914012    
     44500   13.780959      13.992112      2073.9271      0.6451301      0.20362662     0.96435406     10.890087    
     44600   13.822534      14.004249      2077.9429      0.66931023     0.17489886     0.96249033     10.907932    
     44700   13.826405      13.59624       2085.6494      0.65212567    -0.22071275     0.95893393     10.958243    
     44800   13.785763      13.439656      2086.6904      0.63866137    -0.33172811     0.95845554     11.014868    
     44900   13.758805      13.751786      2074.0167      0.64357554    -0.0067683454   0.96431237     10.988798    
     45000   13.748341      14.070366      2059.8056      0.6432965      0.3126748      0.9709654      10.934121    
     45100   13.726991      13.806905      2058.3312      0.64471562     0.077648448    0.97166095     10.899806    
     45200   13.692066      13.760822      2058.5728      0.637513       0.066800011    0.97154689     10.861476    
     45300   13.697579      14.013007      2062.508       0.61482728     0.30586785     0.96969319     10.900732    
     45400   13.729276      13.197132      2074.557       0.64991886    -0.51301964     0.96406124     10.961454    
     45500   13.73628       13.820952      2072.029       0.63549822     0.081728385    0.96523744     10.952452    
     45600   13.734374      14.015383      2068.4756      0.64624098     0.27170629     0.96689561     10.930434    
     45700   13.711999      13.524042      2069.1637      0.62917908    -0.18167381     0.96657406     10.880839    
     45800   13.663611      13.142603      2068.6021      0.6110541     -0.50372918     0.9668365      10.846651    
     45900   13.667114      14.044454      2059.4138      0.62251695     0.36645386     0.97115013     10.834254    
     46000   13.680473      13.906627      2057.8997      0.63842997     0.21979115     0.97186464     10.859661    
     46100   13.688465      13.695823      2060.8823      0.6297344      0.0071402341   0.97045815     10.897381    
     46200   13.706518      13.786029      2064.3076      0.63563238     0.077033425    0.96884787     10.909147    
     46300   13.718467      13.521327      2069.6396      0.63073198    -0.1905074      0.96635183     10.921331    
     46400   13.725103      13.642322      2068.4249      0.63828805    -0.080042874    0.96691932     10.951345    
     46500   13.69452       13.611177      2061.7978      0.64525171    -0.080845       0.97002721     10.989914    
     46600   13.655423      13.727185      2054.1199      0.61948057     0.06987067     0.97365301     10.989383    
     46700   13.642972      13.636657      2051.5677      0.62218881    -0.006156466    0.97486424     10.967399    
     46800   13.647391      13.840773      2053.5917      0.621916       0.18833583     0.97390341     10.928064    
     46900   13.683005      13.76879       2061.7853      0.6290914      0.083214093    0.97003311     10.904132    
     47000   13.703764      13.651571      2065.9942      0.63713809    -0.050525645    0.96805695     10.896553    
     47100   13.663159      13.628439      2064.0505      0.6156441     -0.033643074    0.96896854     10.896361    
     47200   13.649297      13.568706      2060.6882      0.61640886    -0.07821732     0.97054953     10.861926    
     47300   13.659614      13.617092      2056.9069      0.62190917    -0.04134511     0.97233373     10.85532     
     47400   13.663672      13.604374      2056.4411      0.62849682    -0.057670733    0.972554       10.872901    
     47500   13.647268      14.00801       2058.2299      0.61806829     0.35053629     0.97170877     10.905992    
     47600   13.619789      13.620152      2060.2884      0.60230901     0.0003530849   0.97073786     10.920096    
     47700   13.62221       13.718482      2053.5667      0.60616879     0.093760631    0.97391531     10.891667    
     47800   13.664258      13.606208      2048.9907      0.63413384    -0.056661522    0.97609031     10.859615    
     47900   13.658531      13.493676      2049.2408      0.63285907    -0.16089365     0.97597121     10.867422    
     48000   13.631392      13.765403      2053.7034      0.61868976     0.13050666     0.97385045     10.907018    
     48100   13.62211       13.778253      2057.1923      0.59922067     0.15180203     0.97219885     10.931451    
     48200   13.638923      13.382051      2056.2922      0.61708072    -0.24983975     0.97262442     10.926822    
     48300   13.637898      13.840556      2046.525       0.63704243     0.198051       0.97726633     10.889792    
     48400   13.59126       13.642524      2045.817       0.60609051     0.050115762    0.97760456     10.914042    
     48500   13.594625      13.472455      2050.6967      0.6121969     -0.1191501      0.97527829     10.969779    
     48600   13.615418      13.293438      2054.9472      0.60337119    -0.31337079     0.973261       11.021482    
     48700   13.634681      13.834992      2049.4232      0.64066551     0.19548043     0.97588433     10.995715    
     48800   13.611909      13.843129      2044.3896      0.61770561     0.2261996      0.97828711     10.940156    
     48900   13.597078      13.491568      2048.7899      0.60103008    -0.10299757     0.976186       10.941391    
     49000   13.587618      13.466356      2056.113       0.6109152     -0.11795246     0.9727092      10.959451    
     49100   13.574418      13.634117      2057.5166      0.577482       0.058029751    0.97204562     10.96885     
     49200   13.610334      13.778658      2057.3664      0.61160045     0.16363085     0.97211656     10.94671     
     49300   13.633937      13.39217       2061.4472      0.61174236    -0.23456062     0.97019219     10.981228    
     49400   13.620886      13.358083      2058.7471      0.60586882    -0.25530364     0.97146465     11.030437    
     49500   13.589733      13.650141      2050.9959      0.61388382     0.058906004    0.97513601     11.014995    
     49600   13.576005      14.021539      2044.0437      0.5998515      0.43593403     0.97845266     10.960495    
     49700   13.569181      13.50443       2047.5047      0.60617536    -0.063248632    0.97679874     10.93315     
     49800   13.559955      13.419365      2051.7864      0.58415905    -0.13704134     0.97476034     10.915227    
     49900   13.596273      13.419542      2053.8755      0.60990749    -0.17209505     0.97376887     10.908673    
     50000   13.612904      13.941417      2052.2822      0.60418566     0.32014413     0.97452486     10.868723    
     50100   13.596746      13.705223      2055.9229      0.59571235     0.10552577     0.97279912     10.882283    
     50200   13.588563      13.391357      2058.1738      0.59604796    -0.1916317      0.97173521     10.946192    
     50300   13.583143      13.565648      2051.9884      0.60943804    -0.017051896    0.97466437     11.002389    
     50400   13.550956      13.41912       2044.8276      0.59177187    -0.12894621     0.97807755     10.989692    
     50500   13.522278      13.618605      2035.9455      0.59798318     0.094626265    0.98234456     10.93056     
     50600   13.504724      13.626126      2034.7401      0.58303545     0.11932923     0.98292652     10.929257    
     50700   13.516492      13.408099      2042.4685      0.59110626    -0.1061391      0.97920728     10.987327    
     50800   13.52909       13.619919      2045.0962      0.58408821     0.088825508    0.97794909     10.983797    
     50900   13.533656      13.434688      2044.8586      0.58418873    -0.096797342    0.97806272     10.929121    
     51000   13.549631      13.443238      2045.285       0.59334442    -0.10403678     0.97785884     10.866937    
     51100   13.560721      13.632087      2047.9896      0.59226039     0.069693891    0.97656747     10.856961    
     51200   13.567913      13.668243      2051.1793      0.61258944     0.09782656     0.97504884     10.891149    
     51300   13.543354      13.62497       2050.4889      0.5634775      0.079606068    0.97537716     10.923464    
     51400   13.545911      13.597398      2046.6523      0.60692929     0.050313385    0.97720558     10.92929     
     51500   13.518232      13.461269      2041.865       0.58071502    -0.055794622    0.97949666     10.887791    
     51600   13.487156      13.276456      2036.4514      0.5739124     -0.20692844     0.98210053     10.863119    
     51700   13.494888      13.722035      2032.2354      0.58067768     0.22354472     0.98413797     10.847849    
     51800   13.5043        13.687665      2033.5893      0.57819535     0.18033609     0.98348274     10.842164    
     51900   13.535604      13.320743      2041.6858      0.59678663    -0.21047382     0.97958266     10.884446    
     52000   13.556573      13.850164      2042.2853      0.60992963     0.28751197     0.9792951      10.909923    
     52100   13.50894       13.283473      2038.462       0.58630117    -0.22121296     0.98113187     10.895364    
     52200   13.48787       13.549618      2029.5037      0.58033795     0.060850273    0.98546261     10.83695     
     52300   13.47711       13.4142        2032.7421      0.5793512     -0.061896428    0.98389263     10.820754    
     52400   13.463406      13.534497      2036.4339      0.58177779     0.069818667    0.98210896     10.83131     
     52500   13.465685      13.260015      2039.0292      0.56259159    -0.20173253     0.98085895     10.844322    
     52600   13.504463      13.78634       2033.9986      0.59176611     0.27716577     0.98328487     10.843518    
     52700   13.500455      13.710127      2032.0984      0.59280804     0.20636049     0.98420429     10.849087    
     52800   13.472678      13.240789      2033.1544      0.57677322    -0.22810715     0.98369311     10.856955    
     52900   13.466019      13.530005      2033.6683      0.56157617     0.062926421    0.98344454     10.90314     
     53000   13.476599      13.372723      2038.1607      0.58094826    -0.10193118     0.98127689     10.94773     
     53100   13.491577      13.637217      2039.6487      0.57812114     0.14280867     0.98056102     10.941486    
     53200   13.526396      13.524152      2040.9266      0.59731787    -0.0021989304   0.97994703     10.920913    
     53300   13.526497      13.343606      2039.0422      0.59556529    -0.17938943     0.98085269     10.891464    
     53400   13.470175      13.367388      2034.1207      0.57255693    -0.10106211     0.98322585     10.884981    
     53500   13.447844      13.505492      2029.6825      0.58056579     0.056804601    0.98537581     10.877762    
     53600   13.42039       13.736779      2025.3932      0.57261921     0.3124215      0.9874626      10.866657    
     53700   13.396736      13.452662      2023.3349      0.55887505     0.055280839    0.98846709     10.881143    
     53800   13.391719      13.205068      2024.7771      0.55128065    -0.18436681     0.98776304     10.89114     
     53900   13.423748      13.478802      2026.404       0.58046672     0.054336604    0.98697003     10.869588    
     54000   13.428751      13.317935      2026.5246      0.56540555    -0.10936596     0.98691128     10.820083    
     54100   13.419558      13.395557      2024.7043      0.56782718    -0.023707784    0.98779857     10.805046    
     54200   13.421357      13.566307      2027.5324      0.56719139     0.14298113     0.98642072     10.872235    
     54300   13.41752       13.234881      2030.9179      0.5607751     -0.17985883     0.98477639     10.936196    
     54400   13.404907      13.450562      2025.6978      0.56071583     0.04507516     0.9873141      10.930652    
     54500   13.387514      13.525367      2019.4171      0.55677876     0.13652747     0.9903848      10.900049    
     54600   13.35192       13.408023      2014.637       0.55241521     0.055695704    0.99273466     10.847907    
     54700   13.337664      13.230717      2011.7553      0.55707693    -0.10632185     0.99415672     10.844035    
     54800   13.347561      13.474777      2012.9074      0.56241383     0.12639948     0.99358769     10.870469    
     54900   13.389754      13.490189      2020.3132      0.58408387     0.099425632    0.98994552     10.894921    
     55000   13.393973      13.498855      2022.3801      0.56056674     0.10372123     0.9889338      10.910106    
     55100   13.386389      13.138216      2024.1793      0.54923451    -0.24520845     0.98805475     10.905941    
     55200   13.381094      13.237116      2021.7207      0.57810465    -0.14243125     0.98925631     10.861149    
     55300   13.359673      13.561803      2014.6532      0.55781571     0.20066039     0.99272668     10.857962    
     55400   13.34359       13.125027      2011.5083      0.56404174    -0.21731222     0.99427879     10.864584    
     55500   13.323896      13.299212      2010.5333      0.54298701    -0.024555045    0.99476092     10.875275    
     55600   13.324079      13.504328      2012.9711      0.55882093     0.17908714     0.99355622     10.874293    
     55700   13.324773      13.399911      2016.8557      0.55354075     0.074509863    0.99164257     10.879179    
     55800   13.351266      13.339064      2019.7534      0.55868831    -0.012082595    0.99021992     10.872967    
     55900   13.37907       13.339803      2018.8369      0.5752658     -0.038900673    0.99066945     10.837497    
     56000   13.361497      13.223987      2018.2018      0.54628512    -0.13626915     0.9909812      10.846561    
     56100   13.351978      13.514415      2016.8803      0.55662207     0.1610776      0.99163049     10.869114    
     56200   13.333377      13.115396      2023.2307      0.55725574    -0.215478       0.98851801     10.890162    
     56300   13.32575       13.225559      2022.7842      0.54674505    -0.099062431    0.98873624     10.872678    
     56400   13.338459      13.335199      2017.2599      0.56085093    -0.0032321473   0.99144389     10.859576    
     56500   13.34072       13.780733      2012.2027      0.56479038     0.43734499     0.99393564     10.838684    
     56600   13.313563      13.266579      2014.8078      0.55307553    -0.046639049    0.99265053     10.827195    
     56700   13.282566      13.080868      2011.2883      0.5470158     -0.20056605     0.99438755     10.812644    
     56800   13.271789      13.25569       2005.32        0.54510643    -0.016056706    0.99734704     10.762676    
     56900   13.263122      13.570488      2002.2269      0.53387331     0.30702424     0.99888777     10.739364    
     57000   13.285288      13.457011      2007.0447      0.55468493     0.17112002     0.99649        10.770687    
     57100   13.312756      13.044275      2015.6938      0.5481307     -0.26639112     0.99221418     10.820495    
     57200   13.314754      13.070585      2018.2227      0.5450227     -0.24196439     0.9909709      10.852211    
     57300   13.292899      13.339662      2013.7495      0.53921675     0.046444196    0.99317219     10.877419    
     57400   13.260185      13.296116      2006.6035      0.53379263     0.035812258    0.99670911     10.866776    
     57500   13.2574        13.179981      2001.877       0.53526852    -0.077346803    0.99906237     10.862363    
     57600   13.272456      13.417534      2000.5449      0.55504243     0.14503857     0.99972764     10.889378    
     57700   13.301775      13.33846       2007.7133      0.54749643     0.036543442    0.99615815     10.929601    
     57800   13.311756      13.109237      2014.7927      0.55557932    -0.20103224     0.99265795     10.968501    
     57900   13.278053      13.216715      2014.5897      0.52238574    -0.060893721    0.99275797     10.946312    
     58000   13.269796      13.175967      2011.6592      0.53161075    -0.093285061    0.99420416     10.90609     
     58100   13.273555      13.193887      2009.2999      0.53076258    -0.079299961    0.99537157     10.849765    
     58200   13.270767      13.729144      2007.4594      0.53662832     0.45667427     0.99628417     10.807995    
     58300   13.230107      12.968205      2009.1302      0.5259956     -0.26071187     0.99545565     10.830946    
     58400   13.22971       13.283948      2001.6461      0.51931516     0.054193687    0.99917761     10.832345    
     58500   13.244764      13.24847       2001.5349      0.55149643     0.0037031167   0.99923313     10.887525    
     58600   13.228564      13.222958      2006.5285      0.51904503    -0.0055876294   0.99674639     10.924719    
     58700   13.246032      13.284272      2014.8132      0.51364319     0.037958244    0.99264784     10.950692    
     58800   13.287476      13.231282      2016.3107      0.5317104     -0.055739162    0.99191061     10.935052    
     58900   13.281991      13.121128      2008.3365      0.53742767    -0.1601955      0.99584904     10.854232    
     59000   13.242239      13.462896      1997.3302      0.54620017     0.22095201     1.0013367      10.777075    
     59100   13.212555      13.365033      1996.0358      0.52781122     0.15278104     1.001986       10.733893    
     59200   13.19462       13.297926      2003.6453      0.51536933     0.10311855     0.99818067     10.776248    
     59300   13.206893      12.920143      2012.4671      0.50770722    -0.28497346     0.99380506     10.845782    
     59400   13.242822      13.137581      2011.1934      0.51635673    -0.10465482     0.99443446     10.844475    
     59500   13.247862      13.436856      2003.3836      0.5427772      0.18867467     0.99831106     10.824985    
     59600   13.21345       13.00845       2002.0188      0.52362167    -0.204793       0.99899163     10.828563    
     59700   13.195862      13.459955      1999.8016      0.52149636     0.26411991     1.0000992      10.818065    
     59800   13.185961      13.181708      1999.0182      0.51950664    -0.0042556751   1.0004911      10.806404    
     59900   13.180839      13.148092      1998.2213      0.51860914    -0.032776268    1.0008901      10.774955    
     60000   13.165232      13.175709      1996.5064      0.50661621     0.010495589    1.0017498      10.732002    
     60100   13.171667      13.349613      1994.2409      0.51859947     0.1784601      1.0028879      10.710144    
     60200   13.195004      13.156588      1998.653       0.52557218    -0.03844193     1.0006739      10.732368    
     60300   13.208122      13.099968      2001.4201      0.52537449    -0.10807749     0.99929044     10.744828    
     60400   13.202485      13.179259      2000.4454      0.52463621    -0.023220324    0.99977734     10.718853    
     60500   13.165461      13.111338      1996.6219      0.52446036    -0.054214316    1.0016919      10.723002    
     60600   13.140885      13.263461      1988.926       0.51030202     0.12325882     1.0055678      10.747546    
     60700   13.130716      13.461589      1984.8067      0.50763575     0.33340622     1.0076548      10.750104    
     60800   13.140833      12.97275       1994.1725      0.51240641    -0.16857501     1.0029223      10.770044    
     60900   13.180767      13.218176      1998.2082      0.52525726     0.03744237     1.0008967      10.775513    
     61000   13.179653      13.208111      1996.3009      0.51104973     0.028510753    1.001853       10.778378    
     61100   13.162005      13.341357      1992.6596      0.51164865     0.18001235     1.0036837      10.749837    
     61200   13.15935       12.892111      1997.769       0.4971766     -0.26753684     1.0011167      10.766199    
     61300   13.1668        13.3547        1996.6065      0.51670705     0.1882188      1.0016996      10.761342    
     61400   13.166082      12.943871      1998.6235      0.51198114    -0.22236389     1.0006887      10.760132    
     61500   13.154486      13.275831      1994.1805      0.50894848     0.12169871     1.0029182      10.729673    
     61600   13.133444      13.032405      1991.354       0.50467307    -0.10147717     1.0043418      10.709615    
     61700   13.119759      13.184181      1988.9221      0.50090606     0.064781324    1.0055698      10.698285    
     61800   13.123797      13.144448      1989.116       0.51177845     0.020763631    1.0054718      10.710559    
     61900   13.116164      13.150231      1988.0363      0.50502525     0.034271818    1.0060179      10.688487    
     62000   13.095979      13.19628       1984.7807      0.50078959     0.10107027     1.007668       10.652124    
     62100   13.084697      13.131122      1982.578       0.49058818     0.046832894    1.0087875      10.634729    
     62200   13.107378      12.82302       1985.7842      0.521721      -0.28639393     1.0071588      10.657765    
     62300   13.103159      13.16719       1987.0383      0.4928932      0.064448058    1.0065231      10.697135    
     62400   13.072323      13.081481      1988.1684      0.49072424     0.009212701    1.005951       10.72418     
     62500   13.074495      12.881457      1987.2982      0.49665529    -0.194272       1.0063915      10.740038    
     62600   13.095314      13.316692      1984.3524      0.49896571     0.22312438     1.0078855      10.732223    
     62700   13.101153      13.300763      1986.2575      0.49516078     0.20099099     1.0069188      10.720874    
     62800   13.098408      12.837372      1988.9615      0.50291344    -0.26248476     1.0055499      10.719743    
     62900   13.085296      12.942429      1987.1826      0.48994975    -0.14378774     1.00645        10.716548    
     63000   13.073829      12.90597       1984.7661      0.49992392    -0.16914723     1.0076754      10.721336    
     63100   13.054661      13.329907      1979.3372      0.49115619     0.27811914     1.0104392      10.692907    
     63200   13.047277      13.254344      1978.9909      0.48278223     0.20926506     1.0106161      10.664714    
     63300   13.069658      13.035567      1983.0503      0.48817452    -0.034382742    1.0085473      10.681801    
     63400   13.094876      13.146124      1986.4602      0.49582698     0.051597251    1.0068161      10.69473     
     63500   13.096849      13.150383      1990.7062      0.49567582     0.053783353    1.0046686      10.705874    
     63600   13.073314      12.746503      1991.1081      0.48771775    -0.32827061     1.0044658      10.696659    
     63700   13.040493      13.089383      1978.917       0.48850138     0.049410953    1.0106538      10.658706    
     63800   13.041122      13.451856      1970.5244      0.49606354     0.41687822     1.0149582      10.635898    
     63900   13.036007      13.1055        1977.091       0.48856515     0.070298557    1.0115873      10.660534    
     64000   13.026311      12.708772      1987.3386      0.47186711    -0.31956251     1.006371       10.710973    
     64100   13.043078      12.849494      1985.9665      0.49111313    -0.19495111     1.0070663      10.721859    
     64200   13.070153      13.190334      1976.8764      0.50299119     0.12158672     1.0116971      10.706566    
     64300   13.058513      13.212635      1974.6095      0.49420617     0.15610394     1.0128585      10.709697    
     64400   13.042075      13.010382      1983.4876      0.48484755    -0.03195604     1.0083249      10.699454    
     64500   13.037125      13.052607      1986.8014      0.4830142      0.015585367    1.0066431      10.678414    
     64600   13.035127      12.939987      1981.001       0.47325281    -0.096051947    1.0095906      10.650047    
     64700   13.052096      13.213393      1975.0859      0.49285587     0.16333123     1.0126142      10.631713    
     64800   13.04557       13.112133      1979.8139      0.48467997     0.067241776    1.010196       10.653178    
     64900   13.009538      12.945674      1983.5981      0.47984239    -0.064392419    1.0082688      10.66739     
     65000   12.999395      12.730981      1979.7181      0.46898991    -0.27116375     1.0102449      10.65832     
     65100   13.013864      13.206233      1973.1751      0.48328513     0.19498392     1.0135948      10.629577    
     65200   13.028856      13.357182      1976.2583      0.47263382     0.33227015     1.0120135      10.660482    
     65300   13.037435      13.187263      1982.7137      0.4747423      0.15113425     1.0087185      10.687094    
     65400   13.056917      12.550041      1988.948       0.48759698    -0.50969278     1.0055567      10.717574    
     65500   13.042518      12.756794      1984.9931      0.47593829    -0.28788452     1.0075602      10.73708     
     65600   13.007621      13.268765      1977.694       0.47045256     0.26408901     1.0112788      10.719014    
     65700   12.995987      13.30295       1973.2765      0.46070164     0.31112027     1.0135427      10.681272    
     65800   12.998938      13.203249      1972.2464      0.48561126     0.2071865      1.0140721      10.691117    
     65900   12.979599      12.704444      1976.1368      0.47137973    -0.27847763     1.0120757      10.743466    
     66000   12.954158      12.845557      1975.1435      0.45243136    -0.10996765     1.0125846      10.749653    
     66100   12.962613      13.068537      1972.952       0.46557419     0.1073753      1.0137094      10.715281    
     66200   12.977952      13.116498      1974.1042      0.48083249     0.14036279     1.0131178      10.724937    
     66300   12.974993      13.029669      1975.3622      0.4662799      0.05535764     1.0124726      10.723602    
     66400   12.966373      12.728302      1974.9483      0.46426628    -0.2410906      1.0126848      10.670131    
     66500   12.948697      13.006744      1971.2705      0.45286548     0.058893242    1.0145741      10.617793    
     66600   12.940526      12.972622      1969.731       0.46002591     0.032588718    1.0153671      10.602042    
     66700   12.951142      12.833281      1968.1186      0.463978      -0.11977001     1.0161989      10.586527    
     66800   12.968677      12.945275      1968.9917      0.46683056    -0.023770067    1.0157483      10.593244    
     66900   12.97496       13.128962      1973.2585      0.47792132     0.15608934     1.013552       10.59574     
     67000   12.950291      13.048613      1977.3755      0.45136021     0.099446788    1.0114417      10.590107    
     67100   12.93584       12.76945       1974.4934      0.45350695    -0.16853975     1.012918       10.612764    
     67200   12.954829      12.977133      1966.392       0.46210521     0.022684788    1.0170912      10.626212    
     67300   12.977944      12.934509      1966.835       0.47577039    -0.044167062    1.0168621      10.607214    
     67400   12.968139      13.183995      1970.7344      0.46796455     0.21906212     1.0148501      10.573349    
     67500   12.959213      12.69305       1979.2164      0.45914528    -0.26895819     1.0105009      10.563344    
     67600   12.962227      12.813484      1979.2651      0.45722042    -0.1503008      1.0104761      10.53264     
     67700   12.970215      13.185463      1972.8196      0.46171046     0.21821369     1.0137774      10.510959    
     67800   12.977479      13.183663      1968.8138      0.47163325     0.20944963     1.0158401      10.491157    
     67900   12.946704      12.752751      1971.4483      0.46577975    -0.19676173     1.0144826      10.508582    
     68000   12.92444       12.887729      1971.269       0.46012449    -0.037246766    1.0145749      10.523891    
     68100   12.916168      12.934327      1969.0079      0.44605324     0.018445214    1.0157399      10.519226    
     68200   12.92884       12.851101      1968.36        0.45243471    -0.078988069    1.0160743      10.538397    
     68300   12.944197      13.243673      1969.3002      0.45962261     0.30414448     1.0155892      10.569487    
     68400   12.948801      12.833103      1976.9376      0.45186053    -0.11704722     1.0116657      10.622613    
     68500   12.941517      12.832328      1977.4114      0.45674499    -0.11043635     1.0114233      10.614945    
     68600   12.932742      12.877203      1972.5021      0.44970062    -0.05631325     1.0139406      10.596403    
     68700   12.924081      12.928944      1969.0101      0.452058       0.0049402868   1.0157388      10.584389    
     68800   12.899725      12.85121       1969.432       0.44281445    -0.049268315    1.0155212      10.550031    
     68900   12.890694      12.872894      1967.4426      0.44586785    -0.018094437    1.0165481      10.522207    
     69000   12.896746      12.899698      1965.7578      0.44246006     0.0030031176   1.0174193      10.506025    
     69100   12.928972      13.269403      1965.2671      0.47022355     0.3464483      1.0176734      10.503392    
     69200   12.936892      12.79979       1972.8498      0.45599781    -0.13898852     1.0137619      10.547079    
     69300   12.913483      12.716176      1974.277       0.44446745    -0.19987834     1.0130291      10.541718    
     69400   12.89192       12.83169       1968.1571      0.44509575    -0.061205153    1.016179       10.504867    
     69500   12.887174      12.942896      1960.7002      0.45146221     0.056839316    1.0200438      10.466178    
     69600   12.873049      13.041678      1958.9891      0.4452526      0.17215997     1.0209347      10.440783    
     69700   12.859452      12.921855      1963.8588      0.44587137     0.063551257    1.0184032      10.432091    
     69800   12.86664       12.543454      1969.9049      0.44028299    -0.32812385     1.0152774      10.458201    
     69900   12.888863      12.936155      1966.0902      0.44386771     0.048107177    1.0172473      10.461164    
     70000   12.909808      13.078544      1962.5879      0.45742678     0.17195187     1.0190626      10.470656    
     70100   12.917997      12.794517      1965.2584      0.45455809    -0.12566314     1.0176779      10.529235    
     70200   12.88402       12.785588      1969.6656      0.43964666    -0.099948333    1.0154008      10.580076    
     70300   12.869261      12.996055      1971.0569      0.43030883     0.12865601     1.014684       10.576085    
     70400   12.85784       12.603218      1966.3315      0.43527112    -0.25898162     1.0171225      10.559519    
     70500   12.832967      13.175143      1952.2773      0.43078619     0.35054079     1.0244447      10.52977     
     70600   12.819196      12.973677      1951.9341      0.43087054     0.15828494     1.0246248      10.559074    
     70700   12.816023      12.81244       1959.8289      0.42168664    -0.0036567425   1.0204972      10.610199    
     70800   12.851525      12.587947      1966.4215      0.43649607    -0.26807942     1.017076       10.627792    
     70900   12.862015      12.877759      1963.7972      0.44381996     0.016034288    1.0184351      10.604831    
     71000   12.841947      12.89699       1961.2084      0.42921034     0.056131726    1.0197794      10.580116    
     71100   12.825242      12.676312      1960.1985      0.4357958     -0.15195386     1.0203049      10.550111    
     71200   12.809702      12.887721      1957.8613      0.42439816     0.079698163    1.0215228      10.546019    
     71300   12.823977      12.937868      1959.062       0.43920641     0.11627168     1.0208967      10.556608    
     71400   12.836243      12.604032      1960.481       0.42867275    -0.23689175     1.0201578      10.579152    
     71500   12.830074      12.946902      1956.1954      0.43279241     0.11944408     1.0223928      10.562826    
     71600   12.821525      12.860797      1956.7962      0.44160514     0.04013905     1.0220789      10.537727    
     71700   12.80038       12.577683      1957.8533      0.41783696    -0.22749059     1.021527       10.52062     
     71800   12.80098       12.776004      1956.0459      0.42648428    -0.025537827    1.0224709      10.512466    
     71900   12.803775      13.088487      1953.9141      0.42685625     0.29142748     1.0235865      10.51165     
     72000   12.793794      12.7           1954.7854      0.42194806    -0.095963918    1.0231302      10.543002    
     72100   12.763338      12.758426      1953.0232      0.41006194    -0.005030368    1.0240534      10.543575    
     72200   12.766229      13.057059      1950.6924      0.41551567     0.29818126     1.025277       10.510856    
     72300   12.776402      12.674086      1951.8402      0.43143775    -0.10484062     1.024674       10.497597    
     72400   12.766842      12.605603      1951.6466      0.41707739    -0.16523322     1.0247757      10.503401    
     72500   12.755925      12.544773      1952.8845      0.41576002    -0.21624588     1.0241261      10.509589    
     72600   12.742044      12.964105      1948.3068      0.41016172     0.22795274     1.0265324      10.491778    
     72700   12.730352      12.891048      1946.1648      0.4041563      0.1651405      1.0276622      10.49335     
     72800   12.757145      12.566072      1949.4483      0.41582063    -0.19602797     1.0259313      10.517793    
     72900   12.763197      12.917893      1948.3839      0.42167682     0.15879416     1.0264917      10.521501    
     73000   12.760608      12.653268      1951.3292      0.42112074    -0.11001762     1.0249424      10.483543    
     73100   12.753229      12.609384      1952.1852      0.41104547    -0.14736842     1.0244929      10.478054    
     73200   12.729879      12.691931      1948.545       0.40572292    -0.03894979     1.0264069      10.487044    
     73300   12.72378       12.996135      1943.1902      0.40351977     0.28031689     1.0292353      10.476902    
     73400   12.743528      12.745038      1944.2793      0.42455127     0.001553816    1.0286588      10.45477     
     73500   12.757482      12.867722      1946.4965      0.41707621     0.11327043     1.0274871      10.452778    
     73600   12.750309      12.706169      1953.1042      0.41078028    -0.045199983    1.0240109      10.462574    
     73700   12.724123      12.654439      1955.4019      0.39902964    -0.071273296    1.0228076      10.464959    
     73800   12.723399      12.808491      1948.9507      0.40317601     0.087320597    1.0261932      10.440959    
     73900   12.740708      12.612282      1944.4627      0.41731962    -0.13209453     1.0285618      10.449103    
     74000   12.73587       12.828717      1943.9448      0.40305263     0.095523947    1.0288358      10.461884    
     74100   12.733441      12.702597      1949.4038      0.41355781    -0.031644843    1.0259547      10.479628    
     74200   12.718309      12.53749       1949.7797      0.40486796    -0.18547615     1.0257569      10.477014    
     74300   12.714205      12.906608      1944.186       0.38704982     0.19792665     1.0287081      10.465481    
     74400   12.723298      12.845502      1942.2272      0.41488077     0.12583855     1.0297456      10.45831     
     74500   12.717247      12.730701      1943.5969      0.40577907     0.013844731    1.02902        10.468622    
     74600   12.70003       12.543923      1947.3453      0.39438166    -0.16032886     1.0270392      10.482449    
     74700   12.694882      12.724431      1947.4249      0.40048224     0.030346938    1.0269972      10.458023    
     74800   12.685873      12.684148      1942.6317      0.40027432    -0.0017766163   1.0295313      10.425236    
     74900   12.684988      12.821591      1936.987       0.39974849     0.14104631     1.0325315      10.410359    
     75000   12.693904      12.807396      1940.1968      0.40046044     0.11699073     1.0308233      10.434646    
     75100   12.699283      12.564602      1948.1549      0.40535161    -0.13826525     1.0266124      10.487233    
     75200   12.688104      12.5841        1948.4521      0.38924922    -0.10675609     1.0264558      10.499232    
     75300   12.691197      12.750925      1940.9936      0.40692455     0.061543499    1.0304001      10.455127    
     75400   12.694426      12.786436      1935.7628      0.39840235     0.095063299    1.0331844      10.413549    
     75500   12.673629      12.74638       1939.1648      0.39475214     0.075032366    1.0313718      10.424504    
     75600   12.661946      12.466297      1947.9069      0.38735353    -0.20088134     1.0267431      10.454459    
     75700   12.677798      12.55365       1947.793       0.38364902    -0.12747624     1.0268032      10.431678    
     75800   12.689565      12.768444      1939.5078      0.39848984     0.081338995    1.0311895      10.399256    
     75900   12.67761       12.830792      1934.0628      0.40469518     0.15840462     1.0340926      10.414972    
     76000   12.659167      12.822347      1936.6898      0.39287626     0.16851387     1.0326899      10.426978    
     76100   12.654506      12.543624      1942.3045      0.39070232    -0.11417574     1.0297047      10.424346    
     76200   12.649072      12.56127       1940.798       0.37603072    -0.090479521    1.0305039      10.413059    
     76300   12.6549        12.68185       1937.0998      0.39986872     0.027825024    1.0324713      10.414169    
     76400   12.649535      12.548616      1937.5184      0.39039782    -0.10417377     1.0322482      10.444598    
     76500   12.647314      12.668069      1939.6621      0.38672006     0.021400683    1.0311074      10.435563    
     76600   12.657011      12.758667      1938.9279      0.40071081     0.10485745     1.0314979      10.430218    
     76700   12.647074      12.955304      1934.9974      0.38977367     0.31858425     1.0335931      10.423566    
     76800   12.622125      12.320648      1939.314       0.38195944    -0.31091123     1.0312925      10.430836    
     76900   12.622078      12.338802      1939.4135      0.37428438    -0.29212498     1.0312396      10.442526    
     77000   12.62976       12.710287      1934.0213      0.38888717     0.083273244    1.0341148      10.426299    
     77100   12.624212      12.872178      1929.2884      0.39113959     0.25705497     1.0366517      10.388604    
     77200   12.599708      12.482053      1931.2545      0.37298315    -0.12184282     1.0355963      10.402076    
     77300   12.590161      12.661245      1933.4915      0.36496394     0.073529655    1.0343981      10.421037    
     77400   12.605046      12.545287      1935.7645      0.37398544    -0.061741556    1.0331836      10.465678    
     77500   12.612669      12.59962       1934.0034      0.38252606    -0.01349419     1.0341243      10.47178     
     77600   12.617308      12.774016      1932.4963      0.3825191      0.16218211     1.0349308      10.440357    
     77700   12.611354      12.422628      1935.2664      0.3809263     -0.19503812     1.0334494      10.427362    
     77800   12.592432      12.624242      1935.1154      0.37316439     0.032876755    1.0335301      10.414552    
     77900   12.592116      12.592516      1934.5808      0.37314319     0.00041304219  1.0338157      10.408676    
     78000   12.620236      12.741795      1932.9396      0.38362081     0.12577619     1.0346935      10.414649    
     78100   12.627357      12.702179      1935.8835      0.37888324     0.077300788    1.03312        10.440209    
     78200   12.618565      12.377014      1940.8803      0.38023903    -0.24890827     1.0304603      10.449452    
     78300   12.604399      12.559734      1937.5245      0.3670334     -0.046104612    1.032245       10.424645    
     78400   12.604929      12.604912      1932.4455      0.3803834     -1.8068778e-05  1.034958       10.4108      
     78500   12.597912      12.736703      1930.9241      0.37459618     0.14375535     1.0357735      10.420751    
     78600   12.587036      12.622715      1932.6417      0.37386224     0.036922132    1.0348529      10.419831    
     78700   12.581811      12.629979      1934.134       0.36513871     0.049808927    1.0340545      10.441074    
     78800   12.587535      12.421154      1936.6072      0.3734819     -0.17182715     1.0327339      10.459945    
     78900   12.584389      12.56873       1933.754       0.36405564    -0.016195137    1.0342577      10.447949    
     79000   12.582565      12.796311      1929.4651      0.37145909     0.22155996     1.0365567      10.416123    
     79100   12.57963       12.580603      1930.8388      0.37048694     0.001008257    1.0358192      10.421197    
     79200   12.571257      12.423522      1933.204       0.36483676    -0.15283988     1.034552       10.434072    
     79300   12.559064      12.64513       1933.1273      0.35565036     0.089043292    1.034593       10.433121    
     79400   12.563328      12.523731      1934.3918      0.35927094    -0.040940714    1.0339167      10.452522    
     79500   12.588106      12.659483      1930.5537      0.38172698     0.07394435     1.0359722      10.472333    
     79600   12.585314      12.623204      1930.9703      0.36539525     0.039244813    1.0357487      10.488486    
     79700   12.564813      12.551842      1935.3828      0.36158409    -0.013403871    1.0333873      10.506232    
     79800   12.557081      12.409571      1936.1139      0.35253432    -0.15237683     1.0329971      10.48829     
     79900   12.561732      12.626927      1929.5356      0.36355679     0.067576578    1.0365189      10.436228    
     80000   12.554338      12.679418      1926.0208      0.3608249      0.12988395     1.0384104      10.409829    
     80100   12.533948      12.59068       1928.0252      0.36376416     0.05884995     1.0373308      10.414766    
     80200   12.520416      12.641188      1929.2946      0.3509545      0.12519894     1.0366483      10.43338     
     80300   12.529982      12.426096      1930.1022      0.35415723    -0.10764782     1.0362146      10.407389    
     80400   12.537917      12.404781      1928.1652      0.3580272     -0.13809594     1.0372555      10.402436    
     80500   12.540987      12.546536      1925.9908      0.36296306     0.0057624974   1.0384266      10.404034    
     80600   12.527398      12.546297      1927.6284      0.3466124      0.019607862    1.0375444      10.401859    
     80700   12.511939      12.498782      1930.4795      0.34623844    -0.013630969    1.036012       10.392941    
     80800   12.513444      12.67224       1926.8817      0.34311607     0.16482189     1.0379464      10.361614    
     80900   12.540836      12.565843      1925.5815      0.35594459     0.025973463    1.0386473      10.368886    
     81000   12.545756      12.582679      1930.5691      0.37414559     0.038250693    1.0359639      10.386685    
     81100   12.52699       12.406687      1933.0815      0.34707654    -0.12446785     1.0346175      10.382743    
     81200   12.518304      12.52134       1926.963       0.34578095     0.0031507169   1.0379027      10.363422    
     81300   12.51697       12.522383      1924.6935      0.3504162      0.0056247278   1.0391265      10.372499    
     81400   12.507802      12.400228      1928.9416      0.34472867    -0.11153738     1.0368381      10.403322    
     81500   12.493693      12.548241      1928.4497      0.3421593      0.056571476    1.0371025      10.430613    
     81600   12.497214      12.661855      1922.213       0.35284476     0.1713035      1.0404674      10.42454     
     81700   12.512445      12.611102      1922.5564      0.34639875     0.10263074     1.0402816      10.443317    
     81800   12.528475      12.429795      1931.9392      0.35553601    -0.10215615     1.0352293      10.468809    
     81900   12.510703      12.280388      1935.4336      0.34134825    -0.23799892     1.0333602      10.488461    
     82000   12.495304      12.339666      1928.4974      0.34059362    -0.16140869     1.0370768      10.465131    
     82100   12.494962      12.903562      1920.1154      0.346181       0.42559944     1.041604       10.423777    
     82200   12.488069      12.790026      1923.0425      0.34392021     0.31404149     1.0400186      10.400258    
     82300   12.474511      12.202079      1929.6163      0.33138136    -0.28236949     1.0364755      10.405213    
     82400   12.468376      12.267576      1926.7767      0.33210929    -0.20843153     1.038003       10.389603    
     82500   12.487255      12.4138        1921.3056      0.34919741    -0.076463664    1.0409588      10.379851    
     82600   12.490574      12.560297      1920.5082      0.33770008     0.072608947    1.041391       10.385649    
     82700   12.478853      12.585336      1924.4983      0.33553954     0.11066082     1.0392319      10.388453    
     82800   12.464442      12.461426      1928.0788      0.32448031    -0.0031285556   1.037302       10.401195    
     82900   12.471806      12.300674      1926.7428      0.33983668    -0.17763851     1.0380213      10.402127    
     83000   12.489475      12.65846       1919.8688      0.34736232     0.17603798     1.0417378      10.381133    
     83100   12.47503       12.785842      1918.2912      0.34488783     0.32405093     1.0425946      10.372927    
     83200   12.460018      12.255996      1925.8569      0.3321187     -0.21187609     1.0384988      10.382674    
     83300   12.460099      12.338138      1928.4534      0.32839037    -0.12648517     1.0371005      10.395448    
     83400   12.465543      12.499229      1923.914       0.32846507     0.035018089    1.0395475      10.366383    
     83500   12.471491      12.57347       1918.0823      0.3420428      0.10633475     1.0427081      10.328905    
     83600   12.451389      12.503598      1919.211       0.33481585     0.054406334    1.0420949      10.342978    
     83700   12.438257      12.261472      1924.2312      0.32439927    -0.1837461      1.0393761      10.369626    
     83800   12.441885      12.419591      1923.0355      0.32517452    -0.02318677     1.0400224      10.35692     
     83900   12.44597       12.438571      1917.0113      0.33483624    -0.0077198158   1.0432907      10.335083    
     84000   12.432121      12.572008      1914.209       0.32568545     0.14615581     1.044818       10.314607    
     84100   12.421779      12.308351      1921.55        0.32416773    -0.11805887     1.0408264      10.326269    
     84200   12.421713      12.251791      1924.3879      0.32219761    -0.17659888     1.0392915      10.31814     
     84300   12.438484      12.596077      1919.4813      0.33412994     0.16420349     1.0419481      10.294805    
     84400   12.44225       12.689946      1916.9353      0.32918195     0.25842836     1.0433321      10.299141    
     84500   12.433242      12.358888      1922.0831      0.3189939     -0.077367833    1.0405377      10.342521    
     84600   12.425607      12.228569      1926.2941      0.32390765    -0.20457647     1.038263       10.392423    
     84700   12.419566      12.377478      1922.1622      0.31536835    -0.043793124    1.0404949      10.412244    
     84800   12.41761       12.475732      1913.695       0.3217656      0.060743015    1.0450986      10.391643    
     84900   12.405287      12.603384      1911.0227      0.32540584     0.20732045     1.0465601      10.373556    
     85000   12.391081      12.413273      1917.5173      0.31245324     0.0231474      1.0430154      10.385326    
     85100   12.393034      12.133408      1921.2241      0.3189274     -0.27027103     1.041003       10.364383    
     85200   12.403686      12.549072      1915.0236      0.32157627     0.15183716     1.0443735      10.326743    
     85300   12.424016      12.477182      1913.1559      0.32604262     0.055579502    1.0453931      10.336993    
     85400   12.417292      12.520752      1915.9169      0.32396694     0.10799981     1.0438866      10.393209    
     85500   12.407854      12.338974      1919.514       0.32222974    -0.071768425    1.0419304      10.40511     
     85600   12.396403      12.152062      1919.8556      0.31215402    -0.25454088     1.041745       10.395644    
     85700   12.391907      12.441097      1916.8227      0.31368361     0.051324912    1.0433933      10.38305     
     85800   12.399895      12.427412      1915.3086      0.31631585     0.028733489    1.0442181      10.35022     
     85900   12.395271      12.694314      1912.6428      0.31332517     0.31270045     1.0456736      10.320113    
     86000   12.374152      12.322499      1915.0918      0.31164883    -0.05394298     1.0443364      10.317362    
     86100   12.363989      12.302807      1914.3207      0.30504197    -0.06391983     1.044757       10.318323    
     86200   12.370391      12.412656      1913.6544      0.31403425     0.044172332    1.0451208      10.332291    
     86300   12.375888      12.285524      1915.0127      0.31497682    -0.094374575    1.0443795      10.335705    
     86400   12.383969      12.285607      1917.1606      0.30764228    -0.10261271     1.0432094      10.345912    
     86500   12.39328       12.464423      1917.0542      0.30827432     0.074221995    1.0432673      10.325944    
     86600   12.387311      12.248989      1917.8763      0.30350307    -0.14424483     1.0428201      10.32306     
     86700   12.370594      12.358532      1914.7139      0.31280497    -0.012598734    1.0445425      10.332665    
     86800   12.356215      12.43605       1910.5361      0.30290639     0.083573373    1.0468266      10.318057    
     86900   12.356506      12.504092      1911.1751      0.30566733     0.15444609     1.0464766      10.301914    
     87000   12.358474      12.400725      1914.4433      0.30478084     0.044139014    1.0446901      10.313544    
     87100   12.354284      12.119718      1917.2818      0.29491015    -0.24468663     1.0431435      10.351715    
     87200   12.35715       12.362264      1915.4119      0.30330275     0.0053396391   1.0441618      10.33696     
     87300   12.370751      12.319489      1913.7043      0.30490156    -0.05357392     1.0450936      10.297444    
     87400   12.363147      12.322015      1912.2775      0.31119132    -0.043018297    1.0458733      10.291582    
     87500   12.345253      12.572265      1910.8407      0.30317874     0.23760481     1.0466597      10.274574    
     87600   12.334924      12.20492       1914.0076      0.29735222    -0.13584459     1.0449279      10.270213    
     87700   12.326504      12.266472      1910.5983      0.29703017    -0.062841169    1.0467925      10.270842    
     87800   12.332374      12.547153      1904.0791      0.2976848      0.22559859     1.0503765      10.255335    
     87900   12.348041      12.481683      1906.9593      0.30379812     0.14016219     1.0487901      10.257763    
     88000   12.341558      12.232393      1916.9511      0.29188803    -0.11389508     1.0433234      10.307112    
     88100   12.323181      12.075535      1919.5013      0.28798545    -0.25803144     1.0419373      10.326569    
     88200   12.317986      12.149377      1910.1348      0.29099324    -0.17654101     1.0470465      10.287767    
     88300   12.313716      12.532893      1900.6869      0.29734159     0.23062871     1.0522512      10.234347    
     88400   12.288492      12.466794      1903.7082      0.28714702     0.18732014     1.0505812      10.24603     
     88500   12.294782      12.160288      1912.9955      0.28343884    -0.14061048     1.0454807      10.300388    
     88600   12.312425      12.23309       1913.7375      0.29392983    -0.082910921    1.0450754      10.315258    
     88700   12.316278      12.447836      1906.544       0.29710056     0.13800712     1.0490185      10.306392    
     88800   12.309404      12.261696      1905.1417      0.29214098    -0.050083587    1.0497907      10.295113    
     88900   12.295645      12.174371      1909.5494      0.28171549    -0.12701787     1.0473675      10.306521    
     89000   12.295974      12.253232      1911.9329      0.28245695    -0.044711683    1.0460618      10.314717    
     89100   12.308741      12.47474       1908.527       0.29716976     0.17395506     1.0479286      10.275312    
     89200   12.324219      12.52757       1904.9337      0.2964456      0.21349957     1.0499053      10.246865    
     89300   12.301825      12.045375      1908.8984      0.28144349    -0.26868854     1.0477247      10.257835    
     89400   12.293421      12.219136      1911.875       0.28307977    -0.07770834     1.0460935      10.280372    
     89500   12.286161      12.185875      1909.1568      0.2909081     -0.10505726     1.0475829      10.270257    
     89600   12.278435      12.33936       1903.4606      0.28217315     0.064015545    1.0507178      10.241475    
     89700   12.274159      12.411775      1903.1         0.28297317     0.14462383     1.0509169      10.267142    
     89800   12.268689      12.237944      1906.6943      0.26853482    -0.032249815    1.0489358      10.299903    
     89900   12.281951      12.278912      1907.9814      0.28772728    -0.0031855421   1.0482283      10.307832    
     90000   12.292934      12.206448      1908.5013      0.28337588    -0.090632604    1.0479427      10.306489    
     90100   12.293136      12.297628      1907.1988      0.28483103     0.004710603    1.0486584      10.321869    
     90200   12.269309      12.438162      1906.0859      0.27257472     0.17717216     1.0492706      10.332429    
     90300   12.265699      12.120655      1906.7631      0.27652522    -0.15213718     1.048898       10.309188    
     90400   12.26966       12.277777      1904.9774      0.28187726     0.0085221435   1.0498812      10.319198    
     90500   12.265059      12.409221      1904.2037      0.27618799     0.15141505     1.0503078      10.342227    
     90600   12.249683      12.20666       1906.2221      0.27357402    -0.045139498    1.0491957      10.338764    
     90700   12.241333      12.181659      1905.4589      0.26509289    -0.062633946    1.0496159      10.31208     
     90800   12.249248      12.167923      1902.8321      0.27680675    -0.085477834    1.0510649      10.312354    
     90900   12.250968      12.302839      1901.0391      0.27441475     0.054570641    1.0520562      10.328763    
     91000   12.24913       12.200303      1903.1785      0.2716088     -0.051311408    1.0508736      10.32231     
     91100   12.248263      12.190785      1906.4927      0.26898965    -0.060296892    1.0490468      10.33327     
     91200   12.250859      12.322779      1906.5664      0.27366011     0.075443893    1.0490062      10.344581    
     91300   12.251608      12.388858      1904.2769      0.27421335     0.14414873     1.0502674      10.329091    
     91400   12.239526      12.096495      1904.2615      0.27255844    -0.15022212     1.0502759      10.308421    
     91500   12.227866      12.090641      1904.1813      0.26527761    -0.14413024     1.0503202      10.299309    
     91600   12.225198      12.166138      1903.021       0.26432045    -0.062069627    1.0509606      10.289952    
     91700   12.231327      12.335497      1900.7036      0.27008482     0.10961172     1.0522419      10.291143    
     91800   12.246686      12.336053      1901.401       0.26955393     0.094000187    1.051856       10.332858    
     91900   12.247094      12.087933      1905.1281      0.27621791    -0.16708692     1.0497982      10.348231    
     92000   12.232117      12.229141      1905.9811      0.26100569    -0.0031227644   1.0493283      10.311559    
     92100   12.224243      12.41894       1902.6197      0.26273447     0.20466117     1.0511822      10.289293    
     92200   12.213934      12.13395       1899.1494      0.26586474    -0.084231552    1.053103       10.290068    
     92300   12.199576      12.176306      1897.5006      0.25799775    -0.024526481    1.0540181      10.302473    
     92400   12.198179      12.320616      1899.2485      0.25331892     0.12893166     1.0530481      10.340434    
     92500   12.209699      12.125341      1903.2612      0.25861381    -0.088646099    1.0508279      10.351616    
     92600   12.215823      12.188392      1904.189       0.2640606     -0.028810755    1.0503159      10.328516    
     92700   12.2124        12.119001      1901.1222      0.26419388    -0.098257023    1.0520102      10.330121    
     92800   12.200312      12.460157      1895.5036      0.26120177     0.27417008     1.0551286      10.320833    
     92900   12.193052      12.304012      1897.5303      0.25562263     0.11695147     1.0540016      10.315021    
     93000   12.186246      12.099466      1901.3146      0.2573044     -0.091284407    1.0519038      10.338649    
     93100   12.186992      11.918523      1902.6855      0.24980859    -0.28220024     1.0511459      10.360649    
     93200   12.195947      12.287032      1897.9813      0.25791335     0.095980528    1.0537512      10.346611    
     93300   12.197349      12.275062      1897.1702      0.25839081     0.081925332    1.0542017      10.330568    
     93400   12.185499      12.313861      1897.5835      0.25427127     0.13528928     1.0539721      10.33193     
     93500   12.1779        12.213738      1898.4714      0.24843495     0.037755062    1.0534791      10.330606    
     93600   12.181491      12.0313        1899.2047      0.25567145    -0.15816179     1.0530724      10.331683    
     93700   12.174254      12.055289      1897.2388      0.24832898    -0.12540864     1.0541636      10.300661    
     93800   12.167184      12.260697      1896.3009      0.24990238     0.098626802    1.0546849      10.293882    
     93900   12.159461      12.084488      1898.8087      0.25275844    -0.078969298    1.053292       10.331842    
     94000   12.144245      12.1331        1895.777       0.24023533    -0.011757431    1.0549764      10.337628    
     94100   12.146172      12.329266      1891.083       0.24169157     0.19363954     1.0575951      10.319603    
     94200   12.161611      12.146081      1893.4281      0.24573678    -0.016403919    1.0562852      10.304758    
     94300   12.166318      11.789489      1899.2033      0.24947192    -0.39682844     1.0530732      10.336531    
     94400   12.1607        12.274192      1896.9423      0.24813097     0.11965834     1.0543283      10.33709     
     94500   12.155706      12.26595       1893.5554      0.24485876     0.11644208     1.0562141      10.31286     
     94600   12.14022       12.380084      1890.7866      0.24116189     0.25371784     1.0577608      10.299878    
     94700   12.132198      12.03895       1895.0527      0.2360223     -0.098411661    1.0553796      10.30521     
     94800   12.135726      12.014788      1897.7303      0.23816279    -0.12745544     1.0538905      10.293778    
     94900   12.140812      12.147922      1896.8803      0.23447243     0.0074963433   1.0543628      10.276086    
     95000   12.148234      11.993838      1895.6393      0.24478827    -0.16289595     1.0550531      10.292202    
     95100   12.146001      12.295851      1892.9301      0.23949766     0.15832598     1.056563       10.284658    
     95200   12.132565      12.223205      1893.5827      0.24390135     0.095734382    1.0561989      10.274009    
     95300   12.121887      12.191225      1894.6721      0.23190252     0.073192942    1.0555916      10.283209    
     95400   12.128754      12.147883      1894.8029      0.23483052     0.020190693    1.0555187      10.293181    
     95500   12.137923      12.082826      1893.7551      0.23971036    -0.058188524    1.0561027      10.298855    
     95600   12.139581      11.933658      1896.045       0.24335913    -0.21721332     1.0548273      10.302302    
     95700   12.123631      12.216122      1896.5228      0.23047179     0.097537747    1.0545615      10.296807    
     95800   12.118727      12.096917      1895.7117      0.23615135    -0.023010467    1.0550128      10.303045    
     95900   12.115361      12.15614       1892.4466      0.23483487     0.043096376    1.056833       10.284245    
     96000   12.10784       12.120883      1888.9803      0.22987237     0.013809932    1.0587723      10.274387    
     96100   12.101098      12.092739      1889.0569      0.22704623    -0.0088503174   1.0587294      10.281262    
     96200   12.10196       12.146903      1893.1824      0.23425585     0.047479336    1.0564223      10.291314    
     96300   12.104025      12.152996      1894.2448      0.22540296     0.051705016    1.0558298      10.295621    
     96400   12.125205      12.075917      1892.6239      0.23926565    -0.052084652    1.056734       10.273373    
     96500   12.125874      12.083174      1893.0984      0.23675144    -0.045111028    1.0564691      10.260307    
     96600   12.109731      11.916039      1894.6258      0.23019157    -0.20446403     1.0556174      10.263139    
     96700   12.09562       12.2173        1890.2835      0.22902469     0.12874285     1.0580423      10.245372    
     96800   12.085728      12.148644      1889.2041      0.22515531     0.066605701    1.0586469      10.249573    
     96900   12.084097      12.072475      1891.6572      0.22140899    -0.012287365    1.057274       10.275896    
     97000   12.085668      12.123878      1892.8263      0.22045121     0.040373381    1.056621       10.274999    
     97100   12.096921      12.169596      1891.6769      0.22940956     0.076836486    1.057263       10.285474    
     97200   12.099748      11.993661      1891.1252      0.23063778    -0.1121945      1.0575715      10.296135    
     97300   12.085654      11.97809       1890.4989      0.22019491    -0.1137941      1.0579218      10.284717    
     97400   12.078987      12.101126      1890.3323      0.22284906     0.023423639    1.058015       10.264815    
     97500   12.071132      12.148912      1890.7523      0.21843335     0.082274118    1.05778        10.24775     
     97600   12.067489      12.047664      1889.3095      0.22067035    -0.02098703     1.0585878      10.264616    
     97700   12.062779      12.024182      1886.3226      0.2212654     -0.040922794    1.060264       10.281067    
     97800   12.047459      12.220477      1885.9926      0.2134925      0.1834776      1.0604496      10.286465    
     97900   12.044608      12.010219      1890.4202      0.20554563    -0.036381946    1.0579658      10.293698    
     98000   12.057939      11.89039       1891.6923      0.21708542    -0.17714238     1.0572544      10.262616    
     98100   12.059645      12.1084        1887.0784      0.21170371     0.051671841    1.0598394      10.247127    
     98200   12.061287      12.075717      1885.9594      0.21934638     0.015301695    1.0604682      10.268613    
     98300   12.053451      12.073443      1889.0271      0.2161638      0.021165637    1.058746       10.275229    
     98400   12.041661      11.967148      1890.837       0.20539693    -0.078814987    1.0577326      10.273001    
     98500   12.04217       12.088961      1886.2618      0.21482061     0.04961271     1.0602982      10.259557    
     98600   12.039182      12.042003      1883.4166      0.21030232     0.0029951111   1.0619         10.24017     
     98700   12.043521      11.996695      1887.2315      0.21306983    -0.049624288    1.0597534      10.234709    
     98800   12.05599       11.937538      1892.1915      0.21273947    -0.12520102     1.0569755      10.244175    
     98900   12.056367      12.058976      1890.7479      0.21699606     0.0027597823   1.0577825      10.23172     
     99000   12.038871      12.203226      1885.7838      0.20422927     0.1743098      1.060567       10.211962    
     99100   12.035496      12.054496      1885.2094      0.21131974     0.020156372    1.0608901      10.226419    
     99200   12.027794      12.011719      1887.2007      0.20771234    -0.017035399    1.0597707      10.237744    
     99300   12.019881      12.039601      1886.7631      0.20115329     0.020903948    1.0600165      10.252957    
     99400   12.02058       11.988763      1885.7155      0.20662205    -0.033745124    1.0606054      10.271387    
     99500   12.015298      12.061834      1884.0455      0.20406977     0.049399609    1.0615455      10.251413    
     99600   12.002037      11.852889      1884.3917      0.19827949    -0.15829891     1.0613504      10.235272    
     99700   12.004254      11.976426      1883.8956      0.20040577    -0.029543632    1.0616299      10.240655    
     99800   12.014019      12.043334      1883.6054      0.2035125      0.031125625    1.0617935      10.254086    
     99900   12.015839      11.984747      1885.6159      0.20445311    -0.032978044    1.0606614      10.270207    
    100000   12.012651      12.049525      1887.7073      0.19993039     0.039067581    1.0594863      10.288408    
Loop time of 71.2725 on 1 procs for 100000 steps with 2000 atoms

Performance: 121224.839 tau/day, 1403.065 timesteps/s, 2.806 Matom-step/s
99.9% CPU use with 1 MPI tasks x 1 OpenMP threads

MPI task timing breakdown:
Section |  min time  |  avg time  |  max time  |%varavg| %total
---------------------------------------------------------------
Pair    | 51.051     | 51.051     | 51.051     |   0.0 | 71.63
Bond    | 2.1739     | 2.1739     | 2.1739     |   0.0 |  3.05
Neigh   | 8.4237     | 8.4237     | 8.4237     |   0.0 | 11.82
Comm    | 1.1743     | 1.1743     | 1.1743     |   0.0 |  1.65
Output  | 0.2025     | 0.2025     | 0.2025     |   0.0 |  0.28
Modify  | 7.6889     | 7.6889     | 7.6889     |   0.0 | 10.79
Other   |            | 0.558      |            |       |  0.78

Nlocal:           2000 ave        2000 max        2000 min
Histogram: 1 0 0 0 0 0 0 0 0 0
Nghost:           3905 ave        3905 max        3905 min
Histogram: 1 0 0 0 0 0 0 0 0 0
Neighs:          82550 ave       82550 max       82550 min
Histogram: 1 0 0 0 0 0 0 0 0 0

Total # of neighbors = 82550
Ave neighs/atom = 41.275
Ave special neighs/atom = 1.8
Neighbor list builds = 3214
Dangerous builds = 0

write_data 		10mer_simulated.data
System init for write_data ...
Generated 0 of 0 mixed pair_coeff terms from geometric mixing rule
Total wall time: 0:01:11
